[Molden Format]
made by pyscf v[2.11.0]
[Atoms] (AU)
Cr   1   24     1.56143912275337    -2.46507591990239    -1.82404491365355
Cr   2   24    -1.56139565905251     2.46513072196000     1.82399011159594
O   3   8     0.00002078698737     0.00002834589187    -0.00002645616574
N   4   7     5.12832174930954    -1.10581670549011    -0.60767356069801
H   5   1     6.65216855026694    -1.66292686427314    -1.66487895135981
H   6   1     5.63710405218294    -1.59213394419468     1.18765885421890
H   7   1     5.20084187906585     0.81566059741989    -0.65509245834172
N   8   7     1.71230729763415    -0.02251608677419    -4.99594076510539
H   9   1     0.29795878723855     1.27247165241550    -4.90823668593820
H   10   1     1.50271021425414    -0.85583806455427    -6.73026148236459
H   11   1     3.34039895052705     0.99863710888315    -5.18656310846864
N   12   7     1.41057094787259    -4.90763575303059     1.34785282752440
H   13   1     1.64193389675534    -6.79355407945465     0.97314659318890
H   14   1    -0.29048681014202    -4.81040367474334     2.24006056107205
H   15   1     2.72468082571676    -4.56691435331926     2.71738081369757
N   16   7    -2.00544350380280    -3.82433513431467    -3.04041437688297
H   17   1    -2.87205678671934    -5.05516478184926    -1.83221042023780
H   18   1    -2.03637832046193    -4.76397121413665    -4.73247136936628
H   19   1    -3.24475802163669    -2.37551046050250    -3.28123540501917
N   20   7     3.37923471211299    -5.33493873459111    -3.94755661599306
H   21   1     4.17102617885350    -4.76109883042731    -5.61685374703210
H   22   1     2.26176595533881    -6.82326057413281    -4.47610923358166
H   23   1     4.85383336053810    -6.19899521806112    -3.03922195969837
N   24   7    -5.12827828560868     1.10587339727385     0.60762064836653
H   25   1    -5.15408816501799    -0.81544705836782     0.54662784797006
H   26   1    -5.69743166898356     1.68113626520945    -1.14337690194197
H   27   1    -6.63528195761783     1.56841410187914     1.73267665553083
N   28   7    -1.71226383393328     0.02257088883181     4.99588785277390
H   29   1    -1.62991523860311     0.86667375415253     6.73575491620870
H   30   1    -0.22416876152653    -1.19157625647512     4.98456461383551
H   31   1    -3.28782110056328    -1.08746368536834     5.11339858210385
N   32   7     2.00548696750367     3.82438993637228     3.04035957482536
H   33   1     2.05186651577887     4.68410571893416     4.77402266739321
H   34   1     2.83712330958063     5.12208376337235     1.87805706574587
H   35   1     3.26582090902109     2.38241174030942     3.19051154350492
N   36   7    -1.41052748417173     4.90769055508820    -1.34790762958202
H   37   1    -1.75003190025884     6.78104976168840    -0.99229329828299
H   38   1    -2.65834387984003     4.49309409198925    -2.75785496783350
H   39   1     0.32278033988471     4.89894112313146    -2.18344058692784
N   40   7    -3.37919124841212     5.33499353664873     3.94750181393545
H   41   1    -2.26357064378777     6.83195331430581     4.45515784003860
H   42   1    -4.15358022727151     4.76963661305810     5.62761006813313
H   43   1    -4.86681766873998     6.18449345978121     3.04686590187224
[GTO]
1 0
 s    6 1.00
          51528.086349  0.0017695545768669
          7737.2103487   0.013556436258096
           1760.374847   0.067162645785071
          496.87706544    0.23295905918518
          161.46520598    0.47040576982722
          55.466352268    0.35733072606876
 s    3 1.00
          107.54732999   -0.10605255446629
          12.408671897    0.62543981484169
          5.0423628826    0.44878820793655
 s    3 1.00
          8.5461640165   -0.21819012081133
          1.3900441221    0.70422525667731
         0.56066602876    0.42488555412558
 s    1 1.00
        0.071483705972                   1
 s    1 1.00
        0.028250687604                   1
 p    5 1.00
          640.48536096  0.0093555063746755
          150.69711194   0.068993338492216
          47.503755296     0.2634118959318
          16.934120165    0.51034501651775
           6.240968059    0.33195512953954
 p    3 1.00
          3.0885463206    0.32917682676976
          1.1791047769    0.55491385190365
         0.43369774432    0.23818412855984
 p    1 1.00
              0.120675                   1
 d    4 1.00
          27.559479426   0.036950140313562
          7.4687020327    0.18821519783039
          2.4345903574    0.44641244239929
         0.78244754808     0.5681617303244
 d    1 1.00
         0.21995774311                   1
 f    1 1.00
                 1.147                   1

2 0
 s    6 1.00
          51528.086349  0.0017695545768669
          7737.2103487   0.013556436258096
           1760.374847   0.067162645785071
          496.87706544    0.23295905918518
          161.46520598    0.47040576982722
          55.466352268    0.35733072606876
 s    3 1.00
          107.54732999   -0.10605255446629
          12.408671897    0.62543981484169
          5.0423628826    0.44878820793655
 s    3 1.00
          8.5461640165   -0.21819012081133
          1.3900441221    0.70422525667731
         0.56066602876    0.42488555412558
 s    1 1.00
        0.071483705972                   1
 s    1 1.00
        0.028250687604                   1
 p    5 1.00
          640.48536096  0.0093555063746755
          150.69711194   0.068993338492216
          47.503755296     0.2634118959318
          16.934120165    0.51034501651775
           6.240968059    0.33195512953954
 p    3 1.00
          3.0885463206    0.32917682676976
          1.1791047769    0.55491385190365
         0.43369774432    0.23818412855984
 p    1 1.00
              0.120675                   1
 d    4 1.00
          27.559479426   0.036950140313562
          7.4687020327    0.18821519783039
          2.4345903574    0.44641244239929
         0.78244754808     0.5681617303244
 d    1 1.00
         0.21995774311                   1
 f    1 1.00
                 1.147                   1

3 0
 s    5 1.00
          2266.1767785  -0.0053893503921743
          340.87010191   -0.04023472138896
          77.363135167   -0.18008184205526
           21.47964494   -0.46828857657651
          6.6589433124   -0.44692617160187
 s    1 1.00
         0.80975975668                   1
 s    1 1.00
         0.25530772234                   1
 p    3 1.00
          17.721504317   0.062630248763161
           3.863550544    0.33331138482352
          1.0480920883    0.74148638308122
 p    1 1.00
         0.27641544411                   1
 d    1 1.00
                   1.2                   1

4 0
 s    5 1.00
          1712.8415853  -0.0054477995804909
          257.64812677  -0.040627174632423
          58.458245853   -0.18111962250584
          16.198367905   -0.46843975563173
          5.0052600809   -0.44616846289231
 s    1 1.00
         0.58731856571                   1
 s    1 1.00
         0.18764592253                   1
 p    3 1.00
          13.571470233  -0.058848116969522
          2.9257372874   -0.32024624762471
         0.79927750754   -0.75328226520436
 p    1 1.00
         0.21954348034                   1
 d    1 1.00
                     1                   1

5 0
 s    3 1.00
             13.010701   0.033485484812989
             1.9622572    0.23472187088125
            0.44453796    0.81377028525955
 s    1 1.00
            0.12194962                   1
 p    1 1.00
                   0.8                   1

6 0
 s    3 1.00
             13.010701   0.033485484812989
             1.9622572    0.23472187088125
            0.44453796    0.81377028525955
 s    1 1.00
            0.12194962                   1
 p    1 1.00
                   0.8                   1

7 0
 s    3 1.00
             13.010701   0.033485484812989
             1.9622572    0.23472187088125
            0.44453796    0.81377028525955
 s    1 1.00
            0.12194962                   1
 p    1 1.00
                   0.8                   1

8 0
 s    5 1.00
          1712.8415853  -0.0054477995804909
          257.64812677  -0.040627174632423
          58.458245853   -0.18111962250584
          16.198367905   -0.46843975563173
          5.0052600809   -0.44616846289231
 s    1 1.00
         0.58731856571                   1
 s    1 1.00
         0.18764592253                   1
 p    3 1.00
          13.571470233  -0.058848116969522
          2.9257372874   -0.32024624762471
         0.79927750754   -0.75328226520436
 p    1 1.00
         0.21954348034                   1
 d    1 1.00
                     1                   1

9 0
 s    3 1.00
             13.010701   0.033485484812989
             1.9622572    0.23472187088125
            0.44453796    0.81377028525955
 s    1 1.00
            0.12194962                   1
 p    1 1.00
                   0.8                   1

10 0
 s    3 1.00
             13.010701   0.033485484812989
             1.9622572    0.23472187088125
            0.44453796    0.81377028525955
 s    1 1.00
            0.12194962                   1
 p    1 1.00
                   0.8                   1

11 0
 s    3 1.00
             13.010701   0.033485484812989
             1.9622572    0.23472187088125
            0.44453796    0.81377028525955
 s    1 1.00
            0.12194962                   1
 p    1 1.00
                   0.8                   1

12 0
 s    5 1.00
          1712.8415853  -0.0054477995804909
          257.64812677  -0.040627174632423
          58.458245853   -0.18111962250584
          16.198367905   -0.46843975563173
          5.0052600809   -0.44616846289231
 s    1 1.00
         0.58731856571                   1
 s    1 1.00
         0.18764592253                   1
 p    3 1.00
          13.571470233  -0.058848116969522
          2.9257372874   -0.32024624762471
         0.79927750754   -0.75328226520436
 p    1 1.00
         0.21954348034                   1
 d    1 1.00
                     1                   1

13 0
 s    3 1.00
             13.010701   0.033485484812989
             1.9622572    0.23472187088125
            0.44453796    0.81377028525955
 s    1 1.00
            0.12194962                   1
 p    1 1.00
                   0.8                   1

14 0
 s    3 1.00
             13.010701   0.033485484812989
             1.9622572    0.23472187088125
            0.44453796    0.81377028525955
 s    1 1.00
            0.12194962                   1
 p    1 1.00
                   0.8                   1

15 0
 s    3 1.00
             13.010701   0.033485484812989
             1.9622572    0.23472187088125
            0.44453796    0.81377028525955
 s    1 1.00
            0.12194962                   1
 p    1 1.00
                   0.8                   1

16 0
 s    5 1.00
          1712.8415853  -0.0054477995804909
          257.64812677  -0.040627174632423
          58.458245853   -0.18111962250584
          16.198367905   -0.46843975563173
          5.0052600809   -0.44616846289231
 s    1 1.00
         0.58731856571                   1
 s    1 1.00
         0.18764592253                   1
 p    3 1.00
          13.571470233  -0.058848116969522
          2.9257372874   -0.32024624762471
         0.79927750754   -0.75328226520436
 p    1 1.00
         0.21954348034                   1
 d    1 1.00
                     1                   1

17 0
 s    3 1.00
             13.010701   0.033485484812989
             1.9622572    0.23472187088125
            0.44453796    0.81377028525955
 s    1 1.00
            0.12194962                   1
 p    1 1.00
                   0.8                   1

18 0
 s    3 1.00
             13.010701   0.033485484812989
             1.9622572    0.23472187088125
            0.44453796    0.81377028525955
 s    1 1.00
            0.12194962                   1
 p    1 1.00
                   0.8                   1

19 0
 s    3 1.00
             13.010701   0.033485484812989
             1.9622572    0.23472187088125
            0.44453796    0.81377028525955
 s    1 1.00
            0.12194962                   1
 p    1 1.00
                   0.8                   1

20 0
 s    5 1.00
          1712.8415853  -0.0054477995804909
          257.64812677  -0.040627174632423
          58.458245853   -0.18111962250584
          16.198367905   -0.46843975563173
          5.0052600809   -0.44616846289231
 s    1 1.00
         0.58731856571                   1
 s    1 1.00
         0.18764592253                   1
 p    3 1.00
          13.571470233  -0.058848116969522
          2.9257372874   -0.32024624762471
         0.79927750754   -0.75328226520436
 p    1 1.00
         0.21954348034                   1
 d    1 1.00
                     1                   1

21 0
 s    3 1.00
             13.010701   0.033485484812989
             1.9622572    0.23472187088125
            0.44453796    0.81377028525955
 s    1 1.00
            0.12194962                   1
 p    1 1.00
                   0.8                   1

22 0
 s    3 1.00
             13.010701   0.033485484812989
             1.9622572    0.23472187088125
            0.44453796    0.81377028525955
 s    1 1.00
            0.12194962                   1
 p    1 1.00
                   0.8                   1

23 0
 s    3 1.00
             13.010701   0.033485484812989
             1.9622572    0.23472187088125
            0.44453796    0.81377028525955
 s    1 1.00
            0.12194962                   1
 p    1 1.00
                   0.8                   1

24 0
 s    5 1.00
          1712.8415853  -0.0054477995804909
          257.64812677  -0.040627174632423
          58.458245853   -0.18111962250584
          16.198367905   -0.46843975563173
          5.0052600809   -0.44616846289231
 s    1 1.00
         0.58731856571                   1
 s    1 1.00
         0.18764592253                   1
 p    3 1.00
          13.571470233  -0.058848116969522
          2.9257372874   -0.32024624762471
         0.79927750754   -0.75328226520436
 p    1 1.00
         0.21954348034                   1
 d    1 1.00
                     1                   1

25 0
 s    3 1.00
             13.010701   0.033485484812989
             1.9622572    0.23472187088125
            0.44453796    0.81377028525955
 s    1 1.00
            0.12194962                   1
 p    1 1.00
                   0.8                   1

26 0
 s    3 1.00
             13.010701   0.033485484812989
             1.9622572    0.23472187088125
            0.44453796    0.81377028525955
 s    1 1.00
            0.12194962                   1
 p    1 1.00
                   0.8                   1

27 0
 s    3 1.00
             13.010701   0.033485484812989
             1.9622572    0.23472187088125
            0.44453796    0.81377028525955
 s    1 1.00
            0.12194962                   1
 p    1 1.00
                   0.8                   1

28 0
 s    5 1.00
          1712.8415853  -0.0054477995804909
          257.64812677  -0.040627174632423
          58.458245853   -0.18111962250584
          16.198367905   -0.46843975563173
          5.0052600809   -0.44616846289231
 s    1 1.00
         0.58731856571                   1
 s    1 1.00
         0.18764592253                   1
 p    3 1.00
          13.571470233  -0.058848116969522
          2.9257372874   -0.32024624762471
         0.79927750754   -0.75328226520436
 p    1 1.00
         0.21954348034                   1
 d    1 1.00
                     1                   1

29 0
 s    3 1.00
             13.010701   0.033485484812989
             1.9622572    0.23472187088125
            0.44453796    0.81377028525955
 s    1 1.00
            0.12194962                   1
 p    1 1.00
                   0.8                   1

30 0
 s    3 1.00
             13.010701   0.033485484812989
             1.9622572    0.23472187088125
            0.44453796    0.81377028525955
 s    1 1.00
            0.12194962                   1
 p    1 1.00
                   0.8                   1

31 0
 s    3 1.00
             13.010701   0.033485484812989
             1.9622572    0.23472187088125
            0.44453796    0.81377028525955
 s    1 1.00
            0.12194962                   1
 p    1 1.00
                   0.8                   1

32 0
 s    5 1.00
          1712.8415853  -0.0054477995804909
          257.64812677  -0.040627174632423
          58.458245853   -0.18111962250584
          16.198367905   -0.46843975563173
          5.0052600809   -0.44616846289231
 s    1 1.00
         0.58731856571                   1
 s    1 1.00
         0.18764592253                   1
 p    3 1.00
          13.571470233  -0.058848116969522
          2.9257372874   -0.32024624762471
         0.79927750754   -0.75328226520436
 p    1 1.00
         0.21954348034                   1
 d    1 1.00
                     1                   1

33 0
 s    3 1.00
             13.010701   0.033485484812989
             1.9622572    0.23472187088125
            0.44453796    0.81377028525955
 s    1 1.00
            0.12194962                   1
 p    1 1.00
                   0.8                   1

34 0
 s    3 1.00
             13.010701   0.033485484812989
             1.9622572    0.23472187088125
            0.44453796    0.81377028525955
 s    1 1.00
            0.12194962                   1
 p    1 1.00
                   0.8                   1

35 0
 s    3 1.00
             13.010701   0.033485484812989
             1.9622572    0.23472187088125
            0.44453796    0.81377028525955
 s    1 1.00
            0.12194962                   1
 p    1 1.00
                   0.8                   1

36 0
 s    5 1.00
          1712.8415853  -0.0054477995804909
          257.64812677  -0.040627174632423
          58.458245853   -0.18111962250584
          16.198367905   -0.46843975563173
          5.0052600809   -0.44616846289231
 s    1 1.00
         0.58731856571                   1
 s    1 1.00
         0.18764592253                   1
 p    3 1.00
          13.571470233  -0.058848116969522
          2.9257372874   -0.32024624762471
         0.79927750754   -0.75328226520436
 p    1 1.00
         0.21954348034                   1
 d    1 1.00
                     1                   1

37 0
 s    3 1.00
             13.010701   0.033485484812989
             1.9622572    0.23472187088125
            0.44453796    0.81377028525955
 s    1 1.00
            0.12194962                   1
 p    1 1.00
                   0.8                   1

38 0
 s    3 1.00
             13.010701   0.033485484812989
             1.9622572    0.23472187088125
            0.44453796    0.81377028525955
 s    1 1.00
            0.12194962                   1
 p    1 1.00
                   0.8                   1

39 0
 s    3 1.00
             13.010701   0.033485484812989
             1.9622572    0.23472187088125
            0.44453796    0.81377028525955
 s    1 1.00
            0.12194962                   1
 p    1 1.00
                   0.8                   1

40 0
 s    5 1.00
          1712.8415853  -0.0054477995804909
          257.64812677  -0.040627174632423
          58.458245853   -0.18111962250584
          16.198367905   -0.46843975563173
          5.0052600809   -0.44616846289231
 s    1 1.00
         0.58731856571                   1
 s    1 1.00
         0.18764592253                   1
 p    3 1.00
          13.571470233  -0.058848116969522
          2.9257372874   -0.32024624762471
         0.79927750754   -0.75328226520436
 p    1 1.00
         0.21954348034                   1
 d    1 1.00
                     1                   1

41 0
 s    3 1.00
             13.010701   0.033485484812989
             1.9622572    0.23472187088125
            0.44453796    0.81377028525955
 s    1 1.00
            0.12194962                   1
 p    1 1.00
                   0.8                   1

42 0
 s    3 1.00
             13.010701   0.033485484812989
             1.9622572    0.23472187088125
            0.44453796    0.81377028525955
 s    1 1.00
            0.12194962                   1
 p    1 1.00
                   0.8                   1

43 0
 s    3 1.00
             13.010701   0.033485484812989
             1.9622572    0.23472187088125
            0.44453796    0.81377028525955
 s    1 1.00
            0.12194962                   1
 p    1 1.00
                   0.8                   1

[5d]
[7f]
[9g]

[MO]
 Sym= A
 Ene=               0
 Spin= Alpha
 Occup=    1.00000
   1    -1.1478070074937e-05
   2    3.0389324192651e-05
   3    -0.00017016892566266
   4    0.00037656819454648
   5    0.00031096531005711
   6    0.00020645634627137
   7    -5.6589698565335e-05
   8    0.00025044214341272
   9    -0.0006719292623284
  10    0.00018521245938669
  11    -0.00081357433790024
  12    0.0010363140530001
  13    -0.00034669188856109
  14    0.0011712651329061
  15     -0.38111495349235
  16     -0.63589097971787
  17    -0.076297367493815
  18     -0.15878651290857
  19      0.51064036159141
  20     -0.08093404713388
  21     -0.13506999066232
  22    -0.016212295530898
  23    -0.033785433509368
  24      0.10857156262957
  25    0.00098656808838998
  26    0.00085758510233641
  27    0.00065802289417225
  28    -0.00054541767212989
  29    0.00032089706305222
  30    0.00080558194531633
  31    0.00093714399204844
  32    1.8523774242821e-06
  33    -4.2906445277813e-06
  34    3.0369025854423e-05
  35    -0.00012259118542478
  36    -0.00010590080118601
  37    3.7462506217652e-06
  38    3.8790732912958e-07
  39    1.3005895612426e-05
  40    -1.3523951412051e-05
  41    -1.5711947547034e-06
  42    -4.5244953883962e-05
  43    4.4174400252533e-05
  44    1.970680984058e-05
  45    0.00013484096447779
  46    0.00010778222116755
  47    0.00015392672485021
  48    1.2800368658732e-05
  49    4.1077543027094e-05
  50    -9.3028675587704e-05
  51    -0.00014536123578806
  52    -0.00011745316599866
  53    -6.735603189484e-05
  54    -1.6493897797645e-05
  55    5.700291706724e-05
  56    8.3691340684532e-06
  57    2.0017431869812e-06
  58    1.3057225444173e-05
  59    -5.0222634983333e-06
  60    4.1340001775205e-07
  61    1.2740058791623e-06
  62    1.304379671431e-06
  63    -1.4336288994133e-05
  64    -3.2443587930455e-05
  65    2.5539053582114e-06
  66    0.00048388211045997
  67    -0.0002365646503451
  68    0.00072563213772493
  69    0.00023915647781133
  70    -0.0001890598000341
  71    0.00041328010143697
  72    -0.00042581332165674
  73    -0.00069311575301322
  74    -9.3735496120059e-05
  75    -0.00017228740364833
  76    0.00055761061561699
  77    -3.0132208079408e-06
  78    -2.6318694174611e-05
  79    0.00048999275141914
  80    0.0013302594203079
  81     0.012700453971448
  82    -0.015739596134107
  83    -0.0015523365622248
  84    -0.0082335188142369
  85     0.011264565273604
  86    0.0025782129269401
  87     0.003260232047216
  88    -4.4014531833867e-05
  89     0.001022737863751
  90    -0.0021900988810818
  91    -0.007738698889514
  92    -0.0030961374358168
  93    0.00052681418584626
  94    -0.00087866714300547
  95    0.00024959658248399
  96     0.024483531288225
  97     0.011579650421443
  98    -0.00062614531516752
  99    7.8925021840693e-05
 100    -0.001529321538142
 101    -0.017444528872298
 102    -0.0095361221546652
 103    -5.4123061461875e-05
 104    0.0014269252604306
 105    0.00067334249699499
 106    4.855852166557e-06
 107    8.1846297180789e-05
 108    -0.00063854314508745
 109     0.019190094472456
 110    0.0069061225475826
 111    0.0069074290140753
 112    -0.012895257283703
 113    -0.0053328628783971
 114    -0.0055238434765849
 115    0.0022330699198696
 116    0.0029107005207855
 117    0.00073978368163471
 118    0.00033225933246486
 119    -0.0031170395282196
 120     0.011871363525287
 121    0.0066020082385474
 122    0.00018018475231256
 123    -0.0012658496330095
 124    -0.00043651413456705
 125     0.014650053836455
 126    0.0061607902763455
 127    -0.00076747675774916
 128    0.00047280902925715
 129    0.0010128273454778
 130    -0.025859322132288
 131    -0.012065247283549
 132    0.0014566597539383
 133    0.00098875961346249
 134    -0.00047088409466946
 135    -1.1209249735182e-06
 136    -1.2913354500427e-05
 137    0.00039524066210524
 138    -0.018058574535696
 139    -0.007227995512759
 140    -0.0055979490326656
 141     0.012083834096203
 142    0.0057447440954629
 143    0.0041424253167964
 144    0.0020645909900068
 145    0.0037927551474207
 146    0.00040799567369981
 147    0.00082807620359313
 148    -0.0018992460310814
 149    -0.0076887969537147
 150    -0.0030879799823646
 151    0.00095635549869624
 152    -0.00043173175909234
 153    2.4535813188587e-05
 154    -0.017424480759816
 155    -0.0094276498599049
 156    -0.00093254792249155
 157    0.00049582111321081
 158    0.0011481068954525
 159     0.024530170943563
 160     0.011607267921111
 161    -0.00086412011886244
 162    -0.00015314891894409
 163    -0.0014168340203567
 164    -5.7552078083654e-06
 165    4.7088468648064e-05
 166    -0.00064507239327675
 167    -0.00018932398422689
 168    -0.012996947981928
 169      0.01708532946759
 170    0.00030444264496725
 171    0.0080629281495199
 172    -0.012180329630421
 173      0.00157495829213
 174    0.0032356966932016
 175    0.0011193193354769
 176    0.00069019546501843
 177    -0.0029848967469611
 178    -0.025870675990638
 179     -0.01226722065228
 180    -0.0010574801920854
 181    -0.0011357585998657
 182    0.00097277292947061
 183     0.011199864455094
 184     0.004632543300495
 185    -8.581262405727e-05
 186    0.0012073150992825
 187    0.00022798323457894
 188     0.015341287911287
 189    0.0083720415389704
 190    0.0011301038149184
 191    -0.00082195632013523
 192    -0.00058925771207529
 193    -2.7167837221969e-05
 194    -6.8638549815547e-05
 195    8.6750879820285e-06
 196    -0.0014837127744857
 197    0.00027555350212183
 198    -0.0016590942746269
 199    0.00093151067485029
 200    -0.00016370089951231
 201    0.0008791742538707
 202    -0.0002302395181306
 203    -0.00036273811244678
 204    -5.5335283013924e-05
 205    -8.620475940257e-05
 206    0.00028353791859461
 207    -0.00041918795395378
 208    -0.00027891497784228
 209    0.00030779816080204
 210    0.00017737835462702
 211    3.2952906628308e-05
 212    -0.00044663613565554
 213    -0.00026234451801272
 214    -0.00011082962248656
 215    -0.00023267301875321
 216    0.00024453611106812
 217    0.00090660597100374
 218    0.00026264032199544
 219    -0.00019651342265377
 220    7.3761671746209e-05
 221    -0.00025068253477785
 222    -5.1947684199606e-05
 223    -0.000171232616294
 224    0.00044634614561661
 225    -3.0062052992085e-06
 226    -0.00015611482746287
 227    -0.00020105394819362
 228    -7.3942152385375e-05
 229    3.3076501518671e-05
 230    0.00019226492840807
 231    4.9231348347086e-06
 232    -2.0553754836614e-05
 233    1.0497989984522e-05
 234    1.496292287088e-05
 235    1.7930299614161e-06
 236    -0.0001298842219343
 237    -0.00065907540908806
 238    4.7166298916546e-05
 239    -3.1406184082009e-05
 240    -2.4035941427284e-05
 241    -4.3899822733003e-05
 242    -0.00031008216398987
 243    5.5953988389241e-06
 244    9.2794553152622e-06
 245    -4.2895430870063e-05
 246    7.0955499432277e-05
 247    0.00013399468872909
 248    -1.9663942995562e-06
 249    9.0665613316825e-06
 250    1.0017384333138e-05
 251    3.0982253312593e-05
 252    0.00012288866699903
 253    -0.00048900329563888
 254    2.1106487922603e-06
 255    0.00019473868508648
 256    1.0811980338088e-05
 257    -0.00017031643716887
 258    -0.00010187936897105
 259    -0.0001530278126629
 260    -1.7688547757991e-05
 261    -1.13776193608e-05
 262    -1.3426365895321e-05
 263    1.2259278061719e-05
 264    3.985624227137e-06
 265    -1.6607186104292e-05
 266    -9.9854783644163e-05
 267    9.7187380250559e-06
 268    -1.763961337729e-05
 269    -8.642219966332e-06
 270    0.00011917371244438
 271    0.00064099668114178
 272    -1.8354742825996e-05
 273    3.5517646826309e-05
 274    6.042120962837e-05
 275    1.0602306962995e-05
 276    0.00034705557268509
 277    2.0625469590608e-05
 278    2.2772637007018e-05
 279    1.7211511285278e-05
 280    3.3432762537105e-05
 281    0.00012849375838493
 282    -0.00048642153947803
 283    -0.00015947782806461
 284    2.280829168368e-05
 285    0.00010272407137824
 286    -1.0732178625265e-05
 287    5.1820727805518e-05
 288    -0.00023959350301848
 289    -2.0409317646882e-05
 290    -3.1493122766254e-06
 291    -1.7133933768536e-05
 292    -8.0550405464838e-06
 293    3.6279462210928e-06
 294    -1.8815314481334e-05
 295    -0.00010766305379486
 296    1.2364864372861e-05
 297    -1.3817819562606e-05
 298    -9.9555423947425e-06
 299    9.5661638965356e-06
 300    0.00039767079443453
 301    -1.1942029104765e-05
 302    -1.0283240510628e-05
 303    3.4276297126163e-05
 304    0.0001209229434377
 305    0.0006130149888086
 306    -3.2949233870654e-06
 307    4.6008953243103e-05
 308    5.1012388336095e-05
 309    -5.5789771009793e-05
 310    -0.00018328249154495
 311    0.00046872824722368
 312    7.0060788305191e-05
 313    -0.00010616702208744
 314    -0.00024461695312518
 315    1.2600387554374e-06
 316    0.00015840605495457
 317    0.00012455754076461
 318    -2.9673453508007e-06
 319    9.1666810177599e-08
 320    1.0372551894815e-05
 321    -2.4075412540051e-05
 322    1.7505553316564e-07
 323    6.8164382791863e-05
 324    0.0001743177459856
 325    -2.6324422001226e-06
 326    3.5180892329204e-06
 327    1.1530445735026e-05
 328    -4.3564408960121e-05
 329    -0.00042404247157124
 330    -3.0532535970993e-05
 331    -2.7334375818689e-05
 332    -3.757544844579e-05
 333    -0.00014429240691365
 334    -0.00063655777340163
 335    2.4163295561703e-05
 336    -3.7143385358875e-05
 337    -6.0969239466171e-06
 338    -2.569888910899e-06
 339    -4.2964169777804e-06
 340    -2.000608581193e-05
 341    -1.1843891328827e-05
 342    1.2885395266886e-06
 343    -2.4094542617038e-05
 344    4.1451559619604e-05
 345    -1.3595448028484e-05
 346    4.8973322377588e-05
 347    2.2561241797897e-06
 348    -3.2943562286898e-06
 349    1.6698672957555e-06
 350    -1.9166433611547e-06
 351    5.0906906949128e-06
 352    9.4329396120647e-06
 353    -1.2404593166219e-05
 354    -3.7180817256046e-07
 355    4.074560407338e-06
 356    -1.6011869022622e-06
 357    1.0513666810667e-05
 358    -1.6603673336725e-06
 359    -4.0047388753453e-06
 360    3.4239968601805e-07
 361    1.8300708179874e-07
 362    -1.5761359549356e-05
 363    6.5451225071666e-05
 364    5.3473943930644e-06
 365    -4.8021131021936e-06
 366    1.602344191088e-07
 Sym= A
 Ene=               1
 Spin= Alpha
 Occup=    1.00000
   1    1.6760455673817e-05
   2    -4.2576046941364e-05
   3    0.00025561473731885
   4    -0.0016121503150406
   5    0.0018268422787584
   6    0.00059529903311446
   7    0.0029687047987635
   8    -0.0034900321199109
   9    -0.0019567463796561
  10    -0.0098048878533543
  11     0.011507493535706
  12    0.0064599933299957
  13      0.03413831222863
  14    -0.039377683892567
  15      0.63867554125421
  16     -0.37699308166831
  17      0.18767332273605
  18      0.47651927892628
  19      0.18365134765903
  20      0.12715335560872
  21    -0.074474027844383
  22     0.037278119845312
  23     0.095106116174435
  24     0.036498903254672
  25    -0.00075756420837887
  26    0.0019912131740404
  27    -0.0031668441143508
  28    -0.0013573177604369
  29    0.00095940218458187
  30    0.0015690807003234
  31    -0.0011102858106305
  32    1.984857289844e-06
  33    -4.3683623864348e-06
  34    3.3490568889635e-05
  35    0.00056660889634582
  36    -0.0014976124283394
  37    0.00038511699041004
  38     0.001891440951853
  39    -0.002235634029093
  40    -0.0012767125237017
  41    -0.0063229959214865
  42    0.0074564353087392
  43    0.0027526393334923
  44     0.016261244712647
  45     -0.01832918997532
  46    -0.00019363358875961
  47    0.00010119163215323
  48    -7.5726829746335e-05
  49    -0.00021767303105287
  50    -0.00011871642677133
  51    0.0049100494992733
  52    -0.0033357370224004
  53    0.0014473200977401
  54    0.0035747346931803
  55     0.001416904539996
  56    -0.00030108650845103
  57    0.00078744824196494
  58    -0.001309288322446
  59    -0.00058062909870855
  60    0.00037232670462877
  61    0.00062848023962754
  62    -0.00043558284583926
  63    -8.4509996050189e-05
  64    -0.00023159100086845
  65    6.3355641596874e-05
  66     0.014101801046605
  67     0.070185874732969
  68     -0.08280486821258
  69     0.014714200944774
  70      0.07401826134111
  71    -0.086972624475342
  72    -0.0043453496166043
  73    0.0025861560725408
  74    -0.0012757065450848
  75    -0.0032335970908571
  76    -0.0012574075100771
  77    -0.00052776458463556
  78    -0.00058686707934402
  79    -0.0060742040956418
  80    0.00021896097588236
  81    -0.0019742784483384
  82    -0.0023027012590616
  83    0.0012682010339049
  84    -0.0044273826789628
  85    0.0073382627095469
  86    0.00074155479775857
  87    0.00018617334129436
  88    0.00015166154676146
  89    0.00012644000777933
  90    0.00024162006867719
  91    -0.0019316851276667
  92    -0.0028186995140312
  93    0.00017767070976672
  94    0.00043021604382964
  95    -0.00057652318761524
  96    0.00051626458835959
  97    -0.0015664323275511
  98    -3.210093294443e-05
  99    0.00024922961055681
 100    0.00048796608257101
 101    0.0027522322282669
 102    0.0082590573049098
 103    -0.00032273853230023
 104    -0.00089891988157429
 105    -0.00011996418927257
 106       -0.004192711483
 107    -0.0062814518313048
 108    -0.035778382419693
 109    0.0060789076877814
 110    -0.017909149717598
 111    0.00062248205650127
 112    -0.0022042112755599
 113     0.022292257522753
 114    -0.0082827796162451
 115    -0.0032225691062832
 116    0.0010969411510498
 117    -0.00092138736486032
 118    -0.0015104961309107
 119    -0.0014988864525236
 120     0.020340830612986
 121     0.020334797218549
 122    0.0011594024701015
 123    -0.0011479190972465
 124    0.0014696561747569
 125    -0.013231486572426
 126    -0.0069743972582262
 127    -0.00036827694926778
 128    -0.00027081404947158
 129    -0.0010527334064206
 130    -4.9072151339637e-05
 131    -0.0014425636241729
 132    -5.7845773715404e-05
 133    0.00055467107657644
 134    3.371184649288e-05
 135    0.0043268724750384
 136    0.0069382524909203
 137     0.034236373406342
 138    -0.0073441171072715
 139    0.0049907976237199
 140     0.017932508219337
 141     0.004396361169029
 142    -0.00023551225662372
 143    -0.025701512522305
 144    -0.0028037929714491
 145    0.0014995548144067
 146    -0.0010187263022719
 147    -0.0023439240554123
 148    -0.00086101430685831
 149     0.016042231826058
 150     0.007682131132725
 151    8.971049528655e-05
 152    0.0013598524563694
 153    0.00013153506436156
 154    -0.016542726651912
 155    -0.015665516117986
 156    -0.0012274003616001
 157    -0.0010891146354329
 158    0.00073057750443833
 159    -0.0052351429909099
 160    -0.0021400452212203
 161    0.00051101111106815
 162    -0.00030774897793977
 163    -0.00026425403155618
 164    0.00033965162185278
 165    0.00083814612339748
 166    0.00064963992939219
 167    -0.0012596831584907
 168    0.00058944065825536
 169    -0.00091652228221171
 170    0.0032201039704817
 171    -0.0059081083587779
 172    0.0051650849337417
 173    0.0004983911445906
 174    -0.00015590827006834
 175    0.00011785156470197
 176    -1.662494457554e-05
 177    0.00066616583404993
 178    -0.00018802374949393
 179    0.00031899210396622
 180    -0.00016731338358358
 181    4.2147667051907e-05
 182    0.00029310325035873
 183    0.0012271905970224
 184    -0.0017629992753477
 185    -3.0956295697977e-05
 186    0.0004344640519989
 187    -0.00035549083583972
 188    -0.00069897199258638
 189    0.0034728474090768
 190    0.00045563903699334
 191    -0.0002386384060724
 192    -0.00013592452443934
 193    -1.6184231747712e-05
 194    -0.00013410302611218
 195    0.00022502920290056
 196    0.0026288974641729
 197     0.014023542407413
 198    -0.016466517531435
 199    -0.0023329852082672
 200    -0.011046434807727
 201     0.013605410690797
 202    -0.003507544061532
 203    0.0025503350256759
 204    -0.000490419153321
 205    -0.0020316664977458
 206    -0.0010209918636559
 207      -0.0256910540947
 208    -0.012959467019396
 209    0.0010907895959734
 210    2.4990492923211e-05
 211    -0.0016725117696772
 212     0.010198267323807
 213    0.0053186344160599
 214    0.00050104467646118
 215    0.00029686102338578
 216    0.0010127530129647
 217     0.015595661768388
 218     0.008001616552241
 219    -0.0014687466086752
 220    0.00020977632507869
 221    -2.9762718060073e-05
 222    0.00042020931056883
 223    0.00046386418072052
 224    0.0048141275136065
 225    -0.00095774798696562
 226    0.0015820397528837
 227    -0.0009110290150346
 228     0.001434724849082
 229    -0.0044749524842497
 230    0.0023671786467207
 231    -0.00012744035669226
 232    -0.00018167319844884
 233    9.4272287249425e-05
 234    -0.00018661095010491
 235    0.00014578455858821
 236     0.000376223377382
 237    -0.0063211241192779
 238    -0.00045461282599957
 239    -0.00026341653894933
 240    -0.00013347702777264
 241    -0.0010597962968166
 242    0.00069069404252711
 243    0.00015312062439148
 244    -5.166415041816e-05
 245    3.280243363282e-05
 246    -0.0003722433115597
 247    0.0014174874516301
 248    6.1063627214063e-05
 249    6.6178305658393e-05
 250    -1.0312473362932e-05
 251    0.0033322605371279
 252    0.0062248450136503
 253     0.020733873486181
 254    -0.0035348101414317
 255    0.00025876026283211
 256    0.0079547151345707
 257    0.0042094107565214
 258    0.0050027750163029
 259    -0.0072894913030122
 260    -0.00064262891931616
 261    0.00028879547595328
 262    -0.00034776471660585
 263    2.126902716255e-06
 264    -0.00024378575267455
 265    -0.0066859407615173
 266    -0.0027630541570278
 267    0.00028669112742443
 268    0.00011270671594193
 269    0.0002223084346561
 270    0.0040881955151924
 271    -0.0087439489262446
 272    -0.00031599047733792
 273    -6.6189538243565e-05
 274    0.00089629265804236
 275    0.00024946561152434
 276    0.00048123104896766
 277    0.00029190961042427
 278    -7.1521036378758e-05
 279    -0.0004648409477803
 280    -0.00026473413114683
 281    -0.00085963436498875
 282    0.00065497348946876
 283    -0.0005411859060273
 284    0.00038285590425978
 285    -0.0011989654485642
 286    0.0019729533320264
 287    -0.0030163877559991
 288    0.0018183730769047
 289    0.00012959334540151
 290    6.8150012619528e-05
 291    0.0001793423932996
 292    3.8052998526117e-05
 293    -0.00016611915427902
 294    0.0010056964660744
 295    0.0022650992233378
 296    -8.4928812877964e-05
 297    5.7258818510908e-05
 298    -0.00013005150318318
 299    -0.00098026937670614
 300    -0.00093425903521101
 301    4.0525805974056e-05
 302    1.1324205700536e-05
 303    1.7591548266728e-05
 304    -0.00076416583000854
 305    -0.0030209887497345
 306    0.00035170681277884
 307     2.95707449911e-05
 308    -1.746341212401e-05
 309    -0.0033238837158999
 310    -0.0064911061495841
 311    -0.018933715258166
 312    0.0028455140974886
 313    -0.0076761236009479
 314    0.0021804148547002
 315    -0.0020714910649393
 316    0.0044526751637785
 317     -0.00837002012308
 318    -0.00033623092340665
 319    0.00017881257970843
 320    6.4563493496101e-05
 321    -0.00067594090243363
 322    -0.00036978517603506
 323    0.0074630151167343
 324    0.0039905368046048
 325    -6.2277536270857e-05
 326    -0.00036802946240689
 327    -6.4234499692565e-05
 328    -0.0018583099479623
 329    -0.00047006750505288
 330    -0.00038758386043373
 331    0.00022490050430137
 332    -0.00018189683553028
 333    -0.0039524028683055
 334    0.0054671112872122
 335    0.00032639879258101
 336    -0.00043976944794825
 337    0.00022628975531907
 338    1.7721025480397e-05
 339    6.6933975227505e-05
 340    1.4083661710342e-05
 341    -4.4476166865864e-05
 342    -0.00010777426211211
 343    0.00019273761431318
 344    -0.00016399211991024
 345    0.0002002269516997
 346    0.00033992818511732
 347    3.0463697441452e-05
 348    -5.5619053040578e-08
 349    1.1165933972067e-05
 350    4.0243190226214e-05
 351    1.7347426473856e-05
 352    -4.6513006984675e-05
 353    -0.00059071885736812
 354    -7.9244948696252e-06
 355    5.1270244879987e-05
 356    2.2250311161868e-05
 357    2.2138579027891e-06
 358    0.00089617069086774
 359    4.4805905917182e-05
 360    -0.00011140581731992
 361    -4.7069276495079e-05
 362    -4.2838349940704e-05
 363    -0.00073234241699788
 364    -4.2137040253749e-05
 365    5.3260271353674e-05
 366    2.6716864405865e-05
 Sym= A
 Ene=               2
 Spin= Alpha
 Occup=    1.00000
   1    1.5764949715336e-05
   2    -3.8323685246524e-05
   3    0.00024754787334459
   4    -0.0013923148216291
   5    0.00093814255277714
   6    -0.0041087105289815
   7    -0.0012617397488226
   8    -0.001748447121281
   9     0.013558858841528
  10    0.0041527803802833
  11    0.0057637246264948
  12    -0.046628256444368
  13    -0.014034016119124
  14    -0.019779690662097
  15      0.32343567267993
  16      0.27095920957297
  17      0.38554078787485
  18     -0.55016948539098
  19      0.46551933186018
  20      0.06467156567497
  21     0.054391909056086
  22      0.07637068989711
  23      -0.1094783915016
  24     0.092433710818058
  25    -0.00059332283313335
  26    0.00045842190808185
  27    -0.0017575252521815
  28     0.002704721936296
  29    -0.00081719549597175
  30    0.00052905201342722
  31    0.0030192650888514
  32    2.7767290972833e-06
  33    -7.2824126664245e-06
  34    4.2039943083525e-05
  35    0.00054849958713619
  36    -0.0011781351087631
  37    -0.0026101491431245
  38    -0.00081754540530536
  39    -0.001126725505346
  40     0.008719976428596
  41    0.0027192994320676
  42    0.0037576295946132
  43    -0.022054138801588
  44    -0.0063631393041515
  45    -0.0092474143862756
  46    -0.00014494191060609
  47    -7.0770276233867e-05
  48    -0.000104456915174
  49    0.00022372429379842
  50    -0.00016879189357271
  51    0.0023345897270003
  52    0.0017793359302918
  53    0.0031836717956096
  54    -0.0043888042871899
  55    0.0037959832613942
  56    -0.0002679712567634
  57    0.0001631812166794
  58    -0.00071067021599583
  59      0.00109459039581
  60    -0.00030833909194058
  61    0.00023340338025986
  62    0.0012424881090195
  63    -4.8430657324276e-05
  64    -0.00015461950553273
  65    0.00017915898134248
  66    -0.096771471502445
  67    -0.030442537275134
  68    -0.041862360536589
  69     -0.10185491285812
  70    -0.031968045359914
  71    -0.043900021325006
  72    -0.0021886298179117
  73    -0.0018259754135114
  74    -0.0026325808287096
  75    0.0037442007384699
  76    -0.0031718229954791
  77    0.0042724527136437
  78    0.0068485013586754
  79       0.0338071087242
  80    0.0027671745950368
  81     0.015187732302817
  82     0.012354721643405
  83    -0.010807776022675
  84    -0.017005398711956
  85    -0.016525313584505
  86    -0.00093146764850871
  87    -0.0015458338268814
  88    -0.0013420870581364
  89     0.003084714228151
  90    -0.0017267086507326
  91      0.01589460215437
  92    0.0074382676858652
  93    -0.0011012209078414
  94    0.00019755728707482
  95    0.00067149562814624
  96    -0.005204635187477
  97    -0.0023892396371425
  98    0.00022236962978433
  99    -0.00055916858726945
 100    -1.760314290901e-05
 101    -0.016333626184581
 102    -0.014617014178765
 103    0.0010896355212344
 104    0.0011846581272884
 105    -0.00054330886736792
 106    -0.00051478603200077
 107    -0.00043023668234924
 108    -0.0065995396792494
 109    -0.00035235367673205
 110    -0.0030608268231323
 111    -0.0010266408056624
 112    0.0073634481289247
 113    0.0034867466763614
 114    0.00092045338739547
 115    -0.00028350825635823
 116    0.00018662161797149
 117    -5.8005395513949e-05
 118    -0.00035956222081745
 119    0.00038322994265286
 120    0.0031393291320571
 121    0.0069707583315354
 122    0.00025969768759121
 123    -0.0007065848164218
 124    0.00022772340698591
 125    -0.0017032732594339
 126    -0.0034288561030868
 127    -0.00052735311294076
 128    -0.00010747286643651
 129    -0.00028624513643034
 130    0.00032327408592904
 131    0.00085488429230175
 132    1.1386065874851e-05
 133    0.0002978265498573
 134    0.00017857739248415
 135    0.00033936539331197
 136    0.00079037899097083
 137    0.00082522625401146
 138    -0.00085876229405033
 139    -0.00040245987115747
 140    0.0010748867492556
 141    0.0084108716474814
 142    0.0019530504853047
 143    -0.0010796262618636
 144    -2.9366609444082e-06
 145    0.00073180721709892
 146    6.6767367774064e-05
 147    -0.00056492654061238
 148    0.00016883221576416
 149    0.0013547177035459
 150    -0.0010743081676764
 151    -0.00060324791459715
 152    -9.661633031411e-05
 153    -0.00012738853574324
 154    -0.00067430460869038
 155    0.0051052166154437
 156    0.00042778943148356
 157    -8.5507100337458e-05
 158    -0.00051772060130389
 159    -0.00051706737083362
 160    -0.0018716628567889
 161    0.00011010212748456
 162    0.00021177734702026
 163    0.00041552816349591
 164    -0.0041961323619686
 165    -0.006459807242611
 166     -0.03491986178712
 167     0.017194819610549
 168    -0.0070741951884457
 169    -0.0055398143248899
 170    -0.024456038004306
 171    0.00062278846766826
 172    0.0050726398916625
 173    -0.0014918559276737
 174    -0.0013939769292568
 175    -0.0017938336269252
 176    0.0022131989205532
 177    -0.0021762075447129
 178     0.002720011507098
 179    0.00045761563300651
 180    -0.00041187880997139
 181    0.00037211829850611
 182    0.00018822110176242
 183    -0.014739973559972
 184    -0.0074632746326422
 185    -0.00024792050610626
 186    -0.00033983083816223
 187    -0.001187555890465
 188     0.018474865853068
 189     0.018274328844787
 190    0.0015430596363048
 191    -0.00049090474858887
 192    0.0012475814908677
 193    1.3102669590989e-05
 194    -3.171001116244e-05
 195    4.119991948994e-05
 196    -0.019193108000621
 197    -0.0058213724638718
 198    -0.0082883504424289
 199     0.015450412555782
 200    0.0050474265656848
 201    0.0070152395068208
 202    -0.0011512512169346
 203    -0.0010324650114174
 204    -0.0022386259816462
 205     0.002782339275803
 206    -0.0029985717199174
 207    0.0031228892017842
 208    0.0018344406515094
 209    0.00064002199784887
 210    0.00012936633726291
 211    0.00066779758339209
 212    -0.023653030489831
 213    -0.011851409315177
 214    -0.00045230697161699
 215    -0.0017610664981677
 216    -0.00038778155759271
 217     0.020794172543942
 218     0.010789002824685
 219    -0.00094209133364961
 220     0.001379657657643
 221    -0.00063228477338501
 222    -0.0033059089888918
 223    -0.0063384072825815
 224    -0.019777525014532
 225    0.0082133042142944
 226    -0.0022492973094157
 227    -0.00074853712988773
 228    -0.0081703892149629
 229    -0.0011638543476916
 230    -0.0047107991278751
 231    -6.0769502258981e-05
 232    -0.000399663918564
 233    9.9915189316228e-05
 234    0.00060801665691071
 235    -0.00039422453508826
 236    -0.0041105229399001
 237    0.0067610568194728
 238    0.00070024202247766
 239    -0.00023334378640979
 240    2.5478560508414e-05
 241    -0.0012161468517619
 242    -7.7695855712105e-05
 243    -0.00042815129879769
 244    0.00028166147018766
 245    -4.5886209620162e-05
 246    0.0072323747003679
 247    0.0036547557290685
 248    0.00023480230947695
 249    0.00010050893287978
 250    -0.00031260292376433
 251    0.00040630104229275
 252    0.00037434976688063
 253      0.00498687177614
 254    -0.0016883036657913
 255    2.3809485852052e-05
 256    0.00064183544923437
 257    0.0045771013693266
 258    -0.00025321896365714
 259    -0.00054935920190581
 260    9.2123277334009e-06
 261    0.00015262089833711
 262    8.1403686302974e-05
 263    -7.888562071073e-05
 264    -0.00021743079017354
 265    -0.00035498774477518
 266    0.0017290136630905
 267    -6.3441387001581e-05
 268    5.4939147410171e-05
 269    -6.3690435636107e-05
 270    5.967645683626e-05
 271    -0.0048628000972063
 272    -6.5294010027588e-05
 273    -0.00034441425876601
 274    0.00032430332760329
 275    -0.00095204369160171
 276    -0.0010627987625817
 277    5.2509835307377e-05
 278    -5.2344468276309e-05
 279    -4.8243668303576e-05
 280    0.0033429518266518
 281    0.0062001570444123
 282     0.021063249724868
 283    0.0028850310098913
 284    0.0070029961927413
 285    0.0043981070277622
 286    -0.0071230415681835
 287    -0.007149492890444
 288    -0.00080246857703325
 289    -0.00033935761911818
 290    -2.7517851863426e-05
 291    -0.00053201793421461
 292    0.00031842076738174
 293    -0.00042838731700821
 294    -0.0067151792287763
 295    -0.0025759586192061
 296    2.8357292916474e-05
 297    -0.00010224341534645
 298    0.00034298223521991
 299    0.00022629311003969
 300    0.0004952919478334
 301    -0.00011204075298185
 302    -0.00050029748309235
 303    -0.00022906896927005
 304    0.0040339678365517
 305    -0.0092284726052645
 306    0.00048127500559722
 307    0.00069594841939244
 308    0.00048502709595753
 309    -0.00028609166915015
 310    -0.00082967341471687
 311    0.00036906590957108
 312    -0.0014644207098386
 313    -0.0011423569376811
 314    -9.5017810248802e-05
 315    0.0049812626957644
 316    0.0010849579663446
 317    -0.00067451376424827
 318    -0.00014606500453434
 319    -0.00028204272939254
 320    3.5079377968061e-05
 321    -9.9843878552601e-05
 322    5.0320541985119e-05
 323    0.00094896591741084
 324    0.0017439474988559
 325    -7.5792731643769e-05
 326    -9.9171217331563e-05
 327    1.7717961498944e-05
 328    -0.0012097499848975
 329     0.001153489150542
 330    2.9238010545822e-05
 331    -0.00011793673479134
 332    9.6349915957517e-05
 333    -0.00019155056621916
 334    -0.0048674009921205
 335    0.00020894188169374
 336    0.00024179375634839
 337    -0.0003248542625323
 338    1.9238060413044e-05
 339    6.2146117444709e-05
 340    7.9163445147082e-05
 341    0.0001842102466864
 342    9.956282406887e-05
 343    0.00011814980236671
 344    -3.0782421586244e-05
 345    0.00028458572990923
 346    0.00028836266211794
 347    3.3645563378083e-05
 348    2.9947387281951e-05
 349     6.52304563348e-06
 350    -2.678864501076e-05
 351    2.0523373691804e-05
 352    -6.5765141538672e-06
 353    0.00076746978935475
 354    7.8116476446685e-05
 355    -6.1881394999782e-05
 356    -6.3806986882095e-05
 357    -3.3566186860413e-05
 358    -0.00033185606836713
 359    -2.0904638627863e-05
 360    -4.1416572597765e-06
 361    2.0818757951111e-05
 362    -4.7337582890757e-05
 363    -0.00093400579464279
 364    -5.0622452496828e-05
 365    6.917024497542e-05
 366    4.2601118214257e-05
 Sym= A
 Ene=               3
 Spin= Alpha
 Occup=    1.00000
   1    4.1109470883802e-06
   2    -1.1345078700173e-05
   3    5.8549744505264e-05
   4    -0.0001495047924761
   5    -0.00011708605228647
   6    -5.924164663232e-05
   7    -7.1179408708738e-05
   8    4.7462958556565e-05
   9    0.00018648323019374
  10    0.00022564261983226
  11    -0.00015348808266452
  12    6.2630643854805e-05
  13    -6.0336477720375e-05
  14    0.00016420753065967
  15      0.43040372277775
  16     -0.27993751176301
  17     -0.54293249770578
  18     -0.48448003815768
  19     -0.25914997874168
  20     0.053478729239637
  21    -0.034737681601442
  22    -0.067522882182798
  23    -0.060432131942498
  24     -0.03221069280756
  25    0.00028491820631554
  26    -0.00023793246129646
  27    -9.2605660735452e-05
  28    0.00016036860610004
  29    -3.6751115024379e-05
  30    0.00029808407332606
  31    -0.00016694673885011
  32    -9.4113419333296e-08
  33    4.3404312519976e-07
  34    -3.6696494251459e-07
  35    -1.7190126568373e-05
  36    8.400086094097e-05
  37    3.6309482228919e-06
  38    5.8559476850586e-07
  39    -1.811568209704e-06
  40    -1.2026629696576e-05
  41    -2.8259924305507e-06
  42    5.7659868207834e-06
  43    4.3743274684481e-05
  44    3.2119272592546e-05
  45    -3.6900011469415e-05
  46    1.0818728554712e-05
  47    1.2398406416941e-05
  48    -3.7125832735215e-05
  49    -0.00010641958395017
  50    -2.8955144219013e-05
  51    0.0003726470397327
  52    -0.00026883088481685
  53    -0.00042954978224956
  54    -0.0003351568721524
  55    -0.00021471827887854
  56    9.1244543115347e-06
  57    -7.1853486164785e-06
  58    -1.8539334869723e-06
  59    6.6400505636597e-06
  60    4.9238008903909e-07
  61    7.474615652318e-06
  62    -4.6925991596123e-06
  63    -3.3449660525811e-05
  64    -7.7569513623961e-05
  65    -9.0586286261371e-05
  66    0.00046519876552545
  67    0.00074304253939428
  68    -0.00026693671532668
  69    -7.4233716298424e-08
  70    -1.4754969429635e-05
  71    6.4510078005341e-05
  72    -0.00068506060427034
  73    0.00044352299034326
  74    0.00086901394900817
  75    0.00075552700380543
  76    0.00040486011663073
  77     0.032676519568957
  78     0.088189385673339
  79     0.064535286950269
  80      0.11845022078026
  81     0.048100707266805
  82     0.040108277976797
  83    -0.056885324312076
  84    -0.026766372754997
  85    -0.019935439489005
  86     0.001756899419548
  87    -0.0025263156651334
  88    -0.00033644748872841
  89    -0.0031038346998033
  90    -0.0028056358229849
  91    -0.012996484586489
  92    -0.011422192470061
  93    -0.0051468350658095
  94    -0.0032451740189202
  95    -0.0031620922647587
  96    -0.013024478078133
  97    -0.013191851522562
  98    -0.0058024464378023
  99    -0.0024214160481351
 100    -0.00073324932941307
 101    -0.0081953319650218
 102    -0.013497585359656
 103    -0.006764857472044
 104    -0.0019124196251993
 105    -0.0017768292458004
 106    -0.032441918713436
 107    -0.087449387006935
 108    -0.064334705605309
 109    -0.0021836182310867
 110    -0.083682020582024
 111      0.10455272928828
 112    -0.0017966260583446
 113     0.043849206982771
 114    -0.049786990970843
 115    0.0022632405869721
 116    -0.00011007496013925
 117    -0.0044019540659648
 118    -0.0012542856624038
 119    0.00061762852235855
 120     0.006771980238386
 121     0.013995324641006
 122    0.00043128839288082
 123     0.004131361251893
 124    -0.0063717295444135
 125     0.013543814008726
 126     0.011654440371307
 127    0.00019836141605549
 128    0.0051992139993324
 129    -0.0040388346457117
 130     0.013429206379781
 131     0.012180906895673
 132    -0.00084193415055212
 133    0.0033050021897093
 134    -0.0051814182545019
 135    -0.032658089057743
 136      -0.0881336707145
 137    -0.064573634064983
 138     0.007417328375946
 139     0.080965849451716
 140     -0.10639986131405
 141    -0.0063067044207398
 142    -0.038278519424013
 143     0.053260817167554
 144    0.0020590955886938
 145    9.8697028284312e-05
 146    -0.0045372068235619
 147    -0.0014025042730263
 148    0.00050036556560423
 149     0.012922675381588
 150     0.011338886897723
 151    -0.00070556586498207
 152    -0.0027615366645048
 153    0.0062424497781403
 154     0.008441655687442
 155     0.013631043160355
 156    0.00012227648027784
 157    -0.0049352851383431
 158     0.005276283046223
 159     0.012857909742369
 160     0.013240679693145
 161    -0.00096419830049133
 162    -0.0045263673078226
 163    0.0043307782494761
 164     0.032495330596299
 165     0.087604207776957
 166     0.064391985973608
 167     -0.12049367611045
 168    -0.042414653152176
 169    -0.040205307019523
 170     0.061156658603377
 171     0.017608892165606
 172     0.018832172265889
 173    0.0016900725123308
 174    -0.0025552790820516
 175    -0.00046239657644443
 176    -0.0028474615410688
 177    -0.0029926890031817
 178    -0.012959508321266
 179    -0.012350565197939
 180    0.0053365766111179
 181    0.0016189087906272
 182    0.0028771755876523
 183    -0.013476033446034
 184    -0.011602657731383
 185    0.0065247464085305
 186    0.0013504125287862
 187    0.00066976334491208
 188    -0.0075046906083343
 189    -0.013531990016848
 190    0.0062512232755151
 191     0.002941490589219
 192    0.0026775684240999
 193    -4.7527456543304e-06
 194    -2.4890780141972e-05
 195    4.8823977295897e-06
 196    -0.00024221505211926
 197    -0.0002111970988641
 198    0.00019967471763003
 199    0.0011345243848592
 200    0.0014201345096444
 201    -0.00090606113523961
 202    -0.00061161473898253
 203    0.0003983533918482
 204    0.00077006117268702
 205    0.0006725295598164
 206    0.00036548438707052
 207    -0.0015636508342762
 208    -0.00067772982697943
 209    0.00058758506984225
 210    -0.00087705685355277
 211    -6.579822944803e-05
 212    0.0014169054266297
 213    0.00066914378114755
 214    -0.00077062993044007
 215    0.00059892909746842
 216    8.532861379104e-05
 217    0.00016070762477421
 218    0.00011900899692095
 219    0.00044109848206663
 220    0.00055175355509058
 221    -0.00020472033193425
 222    7.0264166835627e-05
 223    -0.00028035708283794
 224     0.001424191135837
 225    0.00037082540289974
 226    0.00053766324415295
 227    0.00040372477562842
 228    0.00097901908766928
 229    -0.0010943386803176
 230    -0.00084578073368005
 231    -4.4526934378249e-06
 232    4.4020114164211e-05
 233    -1.3730822760688e-05
 234    -6.2709866227559e-05
 235    1.9214455659915e-05
 236    1.3747766864417e-05
 237    -0.00026055702298766
 238    5.3681233045877e-05
 239    -1.1781830380254e-05
 240    6.4861260303196e-05
 241    4.1288090170454e-05
 242    -4.6365996074576e-05
 243    -0.00012991946278073
 244    7.1192335553818e-05
 245    4.1440716189777e-05
 246    0.00010562400101097
 247    0.00026254904273907
 248    1.4740678862777e-05
 249    -6.0338801338857e-06
 250    -9.2196878699209e-05
 251    -6.6816769128497e-05
 252     0.000218818925874
 253    -0.00095571755185294
 254    0.00023574729132267
 255    -0.00069597483999204
 256    0.00026648117716319
 257    -0.00055867230932952
 258    0.00089625035885148
 259    0.0010410199816874
 260    5.4050130753843e-05
 261    -8.280072945695e-06
 262    3.4135313530293e-05
 263    -8.0753861906016e-06
 264    2.1161909918608e-05
 265    -0.00011793264496544
 266    -0.00017936480610979
 267    4.8593900106645e-05
 268    6.8939234979323e-05
 269    2.6823424369059e-05
 270    -8.6958449025128e-05
 271    -0.00026983276672444
 272    -3.1048042776587e-05
 273    -8.1098840771201e-05
 274    0.00011476451648088
 275    -3.4977008187874e-05
 276    3.3487393806344e-05
 277    4.0161038247878e-05
 278    -4.4380900959982e-05
 279    -0.00012728789982842
 280    6.7848868146609e-05
 281    -0.0002238598510145
 282    0.0010118287684923
 283    -0.00075538891387915
 284    0.00014446556804285
 285    1.5365794938005e-05
 286    0.00040730209543884
 287    -0.0010865854111451
 288    -0.00095967203768012
 289    -4.3239368657788e-05
 290    -3.5394766367078e-06
 291    -4.5842878027479e-05
 292    1.3506296433563e-05
 293    -2.7133511754622e-05
 294    0.00011709366906505
 295    0.00017810673050785
 296    4.1780239214068e-05
 297    2.0810739021973e-05
 298    -7.6125957277531e-05
 299    3.7688943182467e-05
 300    -6.2805842108018e-05
 301    1.285041636425e-05
 302    0.00010418931674072
 303    9.8269643835392e-05
 304    6.9245870530179e-05
 305    0.00022443429141271
 306    -0.00010978753222219
 307    -6.778571636358e-05
 308    -2.8300052329358e-05
 309    -8.6286447712473e-05
 310    0.00025206725592116
 311    -0.0014705075596056
 312    0.00021915842078415
 313    6.9853144535064e-05
 314    -0.00076925946414515
 315    -0.00077037232703191
 316    0.0014454637790619
 317    0.00076023931297297
 318    -2.5211925904041e-05
 319    7.109306647523e-06
 320    5.4839075496439e-06
 321    -8.0284772548147e-05
 322    -2.2935875856235e-05
 323    -9.9484125060992e-05
 324    -0.00030963995489592
 325    9.3480886025921e-06
 326    6.8107039936201e-05
 327    7.0021252277772e-05
 328    -4.8698880766499e-05
 329    -1.1685856185613e-05
 330    8.1516901559884e-05
 331    -0.00013437637323023
 332    -3.3713309432355e-06
 333    4.1500124631414e-07
 334    0.00022489589279424
 335    -3.9031416937703e-05
 336    -4.8635979885001e-05
 337    -5.3358473281853e-05
 338    -2.6121659734228e-06
 339    -9.3569511617485e-06
 340    4.3161486618491e-06
 341    -3.336840230486e-06
 342    -1.5089770564819e-05
 343    1.2848370293818e-06
 344    2.3404285236458e-05
 345    3.1732824554776e-05
 346    -2.2197269925577e-05
 347    2.6002426187999e-06
 348    -1.5495821873632e-06
 349    -3.7101340251282e-06
 350    -3.4457009115548e-06
 351    -1.4657087186765e-06
 352    -2.3873125730241e-05
 353    3.2156177883973e-05
 354    -8.709191723867e-06
 355    1.3533272638643e-06
 356    -9.9764416752187e-07
 357    2.9122532541948e-05
 358    -4.9402833759675e-05
 359    2.6011130080842e-06
 360    -7.166823253552e-06
 361    4.4672227737437e-06
 362    -4.5360948175523e-06
 363    3.1205618524919e-06
 364    4.0294334920811e-06
 365    4.5119370023936e-06
 366    -9.9639125039826e-07
 Sym= A
 Ene=               4
 Spin= Alpha
 Occup=    1.00000
   1    -7.5392298201178e-07
   2    0.00061137777101784
   3    0.0033428350847712
   4    -0.010335084933015
   5    0.0036622050709633
   6    -0.0022120301700908
   7    0.0034935104272256
   8    0.0026091686657168
   9    0.0058316151565578
  10    -0.0092183207061288
  11    -0.0069111170325997
  12    -0.0043752743065809
  13    0.0071566331901185
  14    0.0058051192931541
  15     0.071619234986533
  16      0.37746863242955
  17     -0.59629297926391
  18      0.24122148716641
  19      0.50949337812004
  20    0.0068639378819019
  21     0.036456214298986
  22    -0.057531595644322
  23     0.023269088302057
  24     0.049064153830762
  25    -0.0022591119865942
  26    -0.0006140406307412
  27    0.00092745169337107
  28    -0.0016887073700499
  29    -0.0035464392491783
  30    0.0025576443245179
  31    0.00033431233900016
  32    0.00021062117321996
  33    -0.00090653512411719
  34    0.0012159768005912
  35    0.0026582057801096
  36    -0.0051281926530196
  37    -0.0018032517273032
  38    0.0028485549046112
  39    0.0021072538476595
  40    0.0052378892664139
  41    -0.0082772696740508
  42    -0.0061261463271492
  43    -0.0066935805067283
  44     0.010714727011744
  45    0.0080926271343462
  46     0.002174074339349
  47     0.011393899604442
  48    -0.017924194032077
  49    0.0072681843264717
  50     0.015335673859274
  51    0.0021705099007068
  52     0.011654706076977
  53    -0.018387845834868
  54    0.0074336614952466
  55      0.01568768058989
  56    -0.0017897917652622
  57    -0.00047545568841778
  58    0.00075263831830873
  59    -0.001334688398984
  60    -0.0028262752756269
  61    0.0020255943860279
  62    0.00024970544142055
  63     0.046389279652773
  64      0.12637012811295
  65     0.059196482075498
  66      0.14818386122094
  67     -0.23342292124983
  68     -0.17213155396983
  69    0.0011514540641695
  70    -0.0017256942344688
  71    -0.0010637836627976
  72    0.0018788301911216
  73    0.0099275752892907
  74    -0.015667763229873
  75    0.0063387045866098
  76     0.013416829041919
  77    -0.017270016971297
  78    -0.045993906845505
  79    -0.032502334079541
  80    -0.064055454037708
  81    -0.025311187212626
  82    -0.021202209282421
  83     0.030380482597502
  84     0.012533490185192
  85     0.010598092923754
  86    -0.0012017869910441
  87    0.0015079018265267
  88    0.0014222394371897
  89    0.0013848479736341
  90    0.0016763562604172
  91    0.0075507513074801
  92    0.0064913024499493
  93    0.0018757677462384
  94    0.00098078188801052
  95    0.0013631471255359
  96    0.0060259408671352
  97    0.0066133483855254
  98    0.0036839691835313
  99    0.0021613383718172
 100    0.00040777286085303
 101    0.0054207065449041
 102    0.0078268628038982
 103    0.0036383804131524
 104    0.0010287370062121
 105    0.0018477602604627
 106     -0.01734628336055
 107    -0.046172126050842
 108    -0.032678365427637
 109    -0.0016451901871017
 110     -0.04485251772861
 111     0.057296574821151
 112    0.0011041940808229
 113     0.021706901549432
 114    -0.027278371331065
 115    0.0009833726111692
 116    -0.00028463206506972
 117    -0.002530362302173
 118    -0.0016327532706514
 119    -0.00059667825655865
 120    0.0057654934940636
 121    0.0085318008851928
 122    0.00057231776098619
 123      0.00264038538916
 124    -0.0029602149678763
 125    0.0072954317673827
 126    0.0065046930838568
 127    0.00053807039291593
 128    0.0023245906714049
 129    -0.0017016395903761
 130    0.0059204337184885
 131    0.0066043650907329
 132    -0.00097867585796243
 133    0.0022147301635942
 134    -0.003439342216603
 135    -0.017315659281594
 136    -0.046108966075567
 137    -0.032622303247283
 138    0.0036121535031831
 139     0.044199470850428
 140    -0.057012287909316
 141    -0.001850555412625
 142    -0.020643674101647
 143     0.027736427670559
 144    0.0019286093140176
 145    -0.00081584163677902
 146    -0.0022471691588075
 147    -0.0010222551541206
 148    -0.00018327911981561
 149    0.0075427825146662
 150    0.0065555953626114
 151    1.7355450878204e-05
 152    -0.00092515087782633
 153    0.0023380055170106
 154     0.005568936999766
 155    0.0077693826915452
 156    0.00045685111611623
 157    -0.002251775567169
 158    0.0035195585187699
 159    0.0059500731423535
 160    0.0066223487222021
 161    -0.0011919197757513
 162    -0.0028543743669882
 163     0.003007328858623
 164    -0.017323069289707
 165    -0.046133059575703
 166    -0.032506118784635
 167     0.064911926335447
 168     0.023627770811922
 169     0.022193664450288
 170    -0.031295383377516
 171    -0.011227144246176
 172    -0.010096465756713
 173    -0.0015429492020249
 174    0.0011037136113947
 175    0.00092650236288436
 176    0.0022290610315234
 177    0.00097640231720103
 178    0.0057936627695109
 179    0.0067045572195008
 180    -0.0037195138872646
 181    -0.0005996478731359
 182    -0.0020811839163708
 183    0.0075672890221997
 184    0.0065333560901709
 185    -0.002573191489279
 186    -0.00081812410481466
 187    -5.4796695885017e-06
 188    0.0056008358564491
 189    0.0081378538972565
 190    -0.0036855859324339
 191    -0.0017221950335629
 192    -0.00069672547758916
 193     0.035162377797976
 194     0.092427283651309
 195     0.073232536148421
 196     0.065207497391707
 197     -0.10209588725893
 198    -0.074990943479658
 199    -0.033369969444988
 200     0.051746543591913
 201     0.037687861093645
 202    0.00053689446112409
 203    0.0027754034813579
 204    -0.004361997747085
 205    0.0017700146399818
 206    0.0037445379751249
 207    -0.013964918964353
 208    -0.012434696330832
 209    -0.0027488063801839
 210    0.0059369959387855
 211    0.0024931063963759
 212    -0.014171930475564
 213    -0.012532791584209
 214    -0.0044786684872071
 215    0.0040592846283185
 216    0.0034988450431834
 217    -0.013217983601963
 218    -0.012393104256394
 219    -0.0022577285041346
 220    0.0047297076814044
 221    0.0047361977218503
 222    -0.0013596163741239
 223    -0.0040860772986669
 224    -0.0035133105005071
 225    0.0043689182230751
 226    0.0022266583550896
 227    0.0018701643958505
 228    -0.0025739761717187
 229    -0.0017737727635571
 230    -0.0018082960554954
 231    -0.00015577952828139
 232    -0.00022930254261889
 233    5.651684494733e-05
 234    0.00020963902249906
 235    -0.00031088640172127
 236    0.00030858608589148
 237    5.9229782229497e-05
 238    -8.6976944379086e-05
 239    -9.2874891880504e-05
 240    -0.00018854586282649
 241    4.4494393268796e-05
 242    -0.00018903797892015
 243    -0.00051610201393038
 244    -0.00015726663986059
 245    -5.4853025562232e-05
 246    0.00069119593064418
 247    0.00030368310726698
 248    -0.00038676961552743
 249    -4.5308764102376e-05
 250    -0.00014126210667836
 251    -0.0013399796960269
 252    -0.0039916093004287
 253    -0.0036459505750354
 254    -9.7490762294669e-05
 255    0.0036722075662562
 256    -0.0037973148095283
 257    -7.4141415925823e-05
 258    -0.0029553182308724
 259    0.0022184905649531
 260    0.00028561780670806
 261    -0.00025697279514263
 262    0.00022773933933675
 263    7.3996700712548e-05
 264    -7.4685692446329e-05
 265    0.00063408627305231
 266    0.0002073304578298
 267    -0.00012558745071402
 268    -0.00023294863985202
 269    0.00035086487184373
 270    0.00048476691448225
 271    0.00015670801257931
 272    -2.1025770913137e-05
 273    -0.00019167274034582
 274    -5.2242426709126e-05
 275    5.501866704456e-05
 276    -0.00026142547236137
 277    -2.6963715325034e-06
 278    -0.00024127913304691
 279    0.00052592985521032
 280    -0.0013394514403189
 281    -0.0039954461492287
 282    -0.0036296723843711
 283    -0.0049716921347437
 284    -0.0013043800904653
 285    -0.0012350836765287
 286      0.00361984443994
 287    0.00075269984822014
 288    0.00026864293861517
 289    6.4076324762347e-05
 290    4.4779675510282e-05
 291    0.00035391242940323
 292    -0.00027927338224002
 293    4.5450792599645e-05
 294    0.00064559764822327
 295    0.00022421074921676
 296    0.00034227197848457
 297    0.00024465056349363
 298    0.00010145763972228
 299    4.9700930202299e-05
 300    -0.00024304410571565
 301    0.00044788720851151
 302    0.00021801768096645
 303    0.00028454702495152
 304    0.00046033269601886
 305    0.00011607086053687
 306    0.00015485201492319
 307    -1.5542276045971e-05
 308    -0.00012904530922375
 309    -0.0013702800861785
 310    -0.004129150544631
 311    -0.0034338121908873
 312    -0.00049996849956959
 313    -0.0027692218817575
 314    0.0044009585261472
 315    0.00048475897661555
 316    0.0012048435332188
 317    -0.0034084929907903
 318    -0.00027788787619693
 319    1.4189107283349e-05
 320    5.2726036919928e-05
 321    -0.00028470967596576
 322    -0.00025897804393014
 323    0.00075623928390894
 324    0.00038511417587966
 325    -5.2749623133806e-05
 326    0.00025694134374362
 327    -0.00028655256494662
 328    -1.8887184418837e-06
 329    -0.00029294298063374
 330    4.118704709513e-05
 331    0.00036837686579214
 332    -0.00034760755820775
 333    0.00019981556578018
 334    -8.5873153061019e-05
 335    -1.9487055957696e-05
 336    6.4700386476532e-05
 337    -0.00026969261036341
 338    0.0029604701701094
 339    0.0091060249868344
 340    0.0039065161585258
 341    -0.0061828477419486
 342    0.0097032242195888
 343    0.0071073150262118
 344    0.0031440583606946
 345    -0.0049445607123823
 346    -0.0036386781513696
 347    -3.4929087268324e-05
 348    -0.00018651944840956
 349    0.00029614498242196
 350    -0.00011989148007151
 351    -0.0002541695629944
 352    -0.0011483367418194
 353    -0.00053427242005573
 354    0.00031663551082997
 355    -0.00040097311253806
 356    -0.00030374512022643
 357    -0.0011471096452123
 358    -0.00051371044484927
 359    0.00026438069630845
 360    -0.00046019981318685
 361    -0.00027230631945111
 362    -0.0011031493856465
 363    -0.0005963305371209
 364    0.00024702840789571
 365    -0.00042216856618621
 366    -0.00034178105156539
 Sym= A
 Ene=               5
 Spin= Alpha
 Occup=    1.00000
   1    -3.8436687743416e-06
   2    7.9603655512598e-06
   3    -6.6489678334359e-05
   4    -0.00027167885465656
   5    0.0016475877145106
   6     0.004780761512373
   7    0.0043958925659235
   8    -0.0018396629696188
   9    -0.016804690684487
  10    -0.015457250265223
  11     0.006470398160329
  12     0.060227428659329
  13     0.055534735699402
  14    -0.023241501333705
  15    -0.024046832519634
  16     0.047844067850611
  17     0.014499235884572
  18    -0.075431019854613
  19     0.020357786878081
  20    -0.014878271919624
  21     0.029267387646147
  22    0.0090448759909173
  23    -0.045656303452224
  24     0.012452530372314
  25    -0.00026505938719701
  26    0.0016707969099399
  27    -0.0015188475210631
  28    -0.0043195240292274
  29     0.001980826748615
  30    0.0012102110698251
  31    -0.004450234924324
  32    3.1319060536795e-06
  33    -6.0716120187446e-06
  34    5.6446586849203e-05
  35    -5.1645725343992e-05
  36    -0.0008253129201803
  37    0.0047798551801387
  38    0.0043978980005742
  39    -0.0018386520686866
  40    -0.016805812320089
  41    -0.015465250655332
  42    0.0064568284045971
  43     0.060320859150489
  44     0.055666958519991
  45     -0.02286864707803
  46     0.024193346718155
  47    -0.047919284031917
  48    -0.014379446216071
  49     0.075399539444235
  50    -0.020211235228256
  51     0.014836547109367
  52    -0.029189065049679
  53    -0.009105284420956
  54     0.045650990920106
  55    -0.012724129142839
  56    -0.0002675529231137
  57    0.0016702580640929
  58    -0.0015251508021193
  59    -0.0043185325127699
  60     0.001981640614286
  61    0.0012116426909974
  62    -0.0044481124319884
  63    7.7285342387246e-06
  64    9.1007063166704e-06
  65    7.231247860542e-05
  66      0.39975257273065
  67      0.36698383022683
  68     -0.15434746117243
  69      0.34400863546674
  70      0.31611440487982
  71     -0.13288858789754
  72    -1.0230729364287e-05
  73    5.5079946528838e-06
  74    -7.5657731964311e-06
  75    5.2885282861939e-07
  76    -1.9646315765774e-05
  77    -0.0052198100407783
  78    -0.0082371101182828
  79    -0.046188144273813
  80    -0.0089982153496968
  81    0.0044184374340087
  82    -0.0016161977084235
  83     0.012358785130293
  84    -0.0050593935065344
  85     0.018039381926543
  86    -0.00010708178133821
  87    -0.00043157124948181
  88    -5.8767400576133e-05
  89    0.0018603725100024
  90    -0.0014407770891557
  91     0.013200911561887
  92    0.0043188928780434
  93    -0.00017126903065034
  94    1.3893006023909e-05
  95    0.00040151513367279
  96    -0.0021386942217333
  97    -0.0035331093261192
  98    0.0010628325862958
  99    -0.00078134143092177
 100    0.00035435809763878
 101    -0.005546691334477
 102      0.02779508629964
 103    -0.0036380333838943
 104    -0.00072064698837478
 105    -0.00046676104397263
 106    -0.0042452161874535
 107    -0.0081583487089748
 108     -0.02737281481105
 109    -0.0018311676559709
 110    -0.00017458870718013
 111    0.0074051906379881
 112    -0.0024863652149098
 113      0.01301758257522
 114    -0.0085607092054537
 115    0.0015569821661893
 116    -0.00036764347431092
 117    0.0009697391534046
 118    -1.2304082531222e-05
 119    3.4038579327142e-05
 120    -0.0063464877312514
 121    0.0040172691322859
 122    -0.0005668536172544
 123    0.00043030747091196
 124    0.0024695066194603
 125       0.0105208902859
 126    0.0099790852316144
 127    0.00083636246401846
 128    -0.00013683276762418
 129    0.0004040299162484
 130    -0.0026084349456304
 131    -0.0037170312497149
 132    0.00048257745228482
 133    -0.00021029859511779
 134    -0.00094871688597764
 135    0.0043628596818329
 136    0.0066057152056939
 137     0.040575851571631
 138     0.005761684043526
 139    -0.0062398119550166
 140    0.0027569289371467
 141    -0.015887997068838
 142    0.0020591879659253
 143    -0.013995934628544
 144    0.00065671735257239
 145    -0.0012159307513229
 146    0.00021070964742546
 147    0.0012303733476332
 148    0.00098122159517667
 149    -0.010906390213961
 150    -0.002975227604997
 151    -4.0894715234819e-05
 152    -0.00026102825887586
 153    -0.00023919867536217
 154    0.0042929188560106
 155    -0.027741123069505
 156    -8.1029996140601e-05
 157    -0.0026699183783978
 158    0.0023098517774326
 159    0.0013244512313439
 160    0.0037322734351452
 161    -0.00091857521858348
 162    0.00081997727685529
 163    -0.0004431989879511
 164    0.0050582956285484
 165      0.00964566867206
 166     0.033387977484176
 167    -0.0040946233086753
 168    -0.0059194775679032
 169    -0.0052553662480504
 170     0.019032930271793
 171    1.1321014574238e-05
 172    0.00067307748502409
 173    -0.00092366830518677
 174    -0.00037836439334986
 175    -0.0017375720322721
 176    0.00084793518640706
 177    -0.00046077840652099
 178    0.0038811509912007
 179    0.0028209894639865
 180    7.068413253889e-05
 181    0.00094828879780346
 182    0.00034006137013963
 183    -0.013088471703758
 184    -0.011707306828723
 185    -0.0003162040796732
 186    0.00037808229196787
 187    -0.00079557411874234
 188    0.0074819361073396
 189    -0.0046811892188245
 190    -0.00076313244135909
 191    -0.0018978104936397
 192    -0.0013307252259678
 193    4.3185464254469e-06
 194    -3.9848244213608e-06
 195    0.00020172299215672
 196    0.0018539970246237
 197    0.0016839826165563
 198    -0.00069669544708939
 199    0.00021873164499819
 200    0.00010940369979802
 201    -0.00014892040978379
 202    0.00014070091247515
 203    -0.00015815524955662
 204    -0.00011685746770619
 205    0.00015803125215424
 206    -0.00011289343413193
 207    -0.0012139508678033
 208    -0.0030653701072443
 209    0.00019628205322557
 210    -0.00040692675735029
 211    -0.00051563939858202
 212    0.0013890953374811
 213    0.0031889645127861
 214    -0.0001995723847487
 215    0.00057319046245494
 216    0.00048674522531863
 217    -0.00020274911968917
 218    -0.00074777291452295
 219    -9.649633968442e-05
 220    -0.00026853196302444
 221    6.9860016740944e-05
 222    0.0052695894674176
 223    0.0080692418242728
 224     0.047832513275716
 225    -0.009145385808557
 226    0.0047356982534006
 227    -0.0013431604973403
 228     0.013248572575557
 229    -0.0066549096355871
 230     0.016781841801603
 231    0.00010468755623599
 232    0.00041205964941741
 233    0.00018661874056182
 234    -0.0018757062826872
 235    0.0013741647133311
 236     0.005130357735122
 237     -0.02972489029433
 238    -0.0040143861471586
 239    -0.00071164018978535
 240    -0.0005333420272358
 241    0.0012289348787959
 242    0.0029709136206318
 243    0.0011475236532268
 244    -0.00079973742395095
 245    0.00019537352755796
 246    -0.012735602377178
 247    -0.003507986449537
 248    -8.1394778021296e-05
 249    -7.1994160586244e-05
 250    0.00045506609427146
 251    0.0042128188801282
 252    0.0082984013288723
 253     0.026163072350045
 254    -0.0014717483868629
 255    -0.00040018942669479
 256    0.0073125960136097
 257    -0.004300037981743
 258     0.013833103465723
 259    -0.0080352048396699
 260    -0.0015571675097867
 261    0.00041243854003076
 262    -0.0010015543015579
 263    3.3654052330226e-05
 264    7.8970340453393e-05
 265    -0.010813996015419
 266    -0.010568584956344
 267    0.00077836503610533
 268    -6.9637116952363e-05
 269    0.00047786279155603
 270    0.0066219664393602
 271    -0.0016652305480698
 272    -0.00070961647386077
 273    0.00045995952615962
 274     0.002022549851634
 275    0.0032621619073431
 276    0.0029249199838471
 277    0.00049265137542609
 278    -0.00019748023596486
 279    -0.00077528823940538
 280    -0.0050821687743889
 281    -0.0095636618043119
 282    -0.034240454177475
 283    -0.0039424979028964
 284    -0.0062183747704789
 285    -0.0052361101350146
 286     0.018527282019664
 287    0.0014067147396766
 288    0.00049114949432776
 289    0.00096455858967187
 290    0.00037707700011028
 291     0.001674170938228
 292    -0.00083040483121184
 293    0.00052007289207697
 294     0.012872174829428
 295     0.011168777538286
 296    -0.00034329299612811
 297    0.00046793006438388
 298    -0.00076833760140018
 299    -0.0033997243920242
 300    -0.0032107666298728
 301    0.00012297062967305
 302    0.0010212277421377
 303    0.00047882108566564
 304    -0.0073663504579587
 305    0.0064191854544529
 306    -0.00092509767532764
 307    -0.0020021507146802
 308    -0.0016308401060999
 309    -0.0043159304224608
 310     -0.00678669431703
 311    -0.038695378443801
 312    0.0055950373155991
 313    -0.0059910495812734
 314    0.0030147732161346
 315    -0.014945299266674
 316    0.00076575765051804
 317    -0.015332114816395
 318    -0.00061879055220479
 319    0.0011692584732939
 320    -0.00013535163772198
 321    -0.0012603245195863
 322    -0.0010658829740952
 323     0.011240243771368
 324    0.0037969895689287
 325    4.8537245482501e-05
 326    -0.00030258660444327
 327    -0.00018344743784164
 328    -0.0020508981941754
 329    -0.0047838939280478
 330    -0.00096816305634307
 331    0.00069411557214394
 332    -0.00054899339577869
 333    -0.0046902495534288
 334     0.025717588411375
 335    -0.00013822037222583
 336    -0.0024158799179568
 337    0.0021138641763427
 338    5.1729572380229e-06
 339    3.8688176031549e-05
 340    -0.00018513329320241
 341    0.0018252138947427
 342    0.0017018916845488
 343    -0.0007067550446407
 344    0.0001333954296489
 345    0.00022276988181418
 346    -0.00011030641952954
 347    -0.00015221468319991
 348    0.00015975694944115
 349    0.0001067734883164
 350    -0.00015594220369966
 351    0.00010874288156124
 352    -0.0013990221928202
 353    -0.0032761877386586
 354    -0.00019135521485775
 355    0.00057575173627852
 356    0.00048367312888816
 357    0.0011869181259525
 358    0.0030601342098182
 359    0.00019697735947502
 360    -0.00041616488776314
 361    -0.000514418794377
 362    0.00021569857034279
 363    0.00044679373830652
 364    -0.00010738241589891
 365    -0.000261554710828
 366    6.0905461381878e-05
 Sym= A
 Ene=               6
 Spin= Alpha
 Occup=    1.00000
   1    5.3376093125519e-05
   2    -0.0001227771062109
   3    0.00087607772738524
   4    0.0011231997011044
   5    -0.0078132597900086
   6    0.0037237094114523
   7    -0.0018165543203934
   8    0.0053276502638052
   9    -0.013133187979099
  10     0.006448590809768
  11    -0.018718665917829
  12     0.048750681555849
  13    -0.025560495658966
  14     0.066806032804784
  15     0.070915456351725
  16    -0.0059576383799715
  17     0.041056897875733
  18    -0.0056835250519194
  19     0.048571390690759
  20      0.04229837938261
  21    -0.0057824802166376
  22     0.025943313107915
  23    -0.0039310522433638
  24     0.029966330061705
  25    0.0015203069081621
  26    -0.0027046677758763
  27    0.0052363778168108
  28    -0.0015105677515259
  29    2.4961095963505e-05
  30    -0.0023315535563686
  31     -0.00205907820509
  32    -5.4345439438384e-05
  33    0.00012515424130548
  34    -0.0008909487914659
  35    -0.00094985489951097
  36    0.0075711415787737
  37    0.0037240838976514
  38    -0.0018196440898491
  39    0.0053283732979591
  40    -0.013144353607754
  41    0.0064483601674043
  42     -0.01871795980524
  43      0.04920373852969
  44    -0.025153471208137
  45     0.066701853887434
  46     -0.07101040710496
  47    0.0060367806722926
  48    -0.041042586313267
  49    0.0055280254310712
  50    -0.048548482168772
  51    -0.042401941302819
  52    0.0058520350219738
  53    -0.025740345374729
  54     0.004089148978682
  55    -0.029919250378361
  56    0.0015165643500838
  57    -0.0027063718394883
  58     0.005241492390008
  59    -0.0015051113422753
  60    2.7665374206131e-05
  61    -0.0023298635797338
  62    -0.0020552922084755
  63    -3.585893954508e-07
  64    -1.4698005534993e-06
  65    1.0160245048652e-05
  66      0.30219250966957
  67     -0.13737307744871
  68      0.45606626346268
  69      0.26103498658739
  70     -0.11958868107502
  71      0.39109121180732
  72    5.4768420484084e-06
  73    -1.2010209487904e-05
  74    -7.7527689612686e-07
  75    1.0647484454024e-05
  76    -1.0653303063048e-06
  77    -0.0040037470501747
  78    -0.0079052911421666
  79    -0.025328624222214
  80    -0.0070034361579546
  81    -0.00054656158555694
  82    0.0015372929020725
  83    0.0076952860458325
  84     0.017048655842258
  85     0.005814914684578
  86    -0.0006848042778042
  87    -0.0013776752957926
  88    0.00032489148434638
  89    0.00091739895248087
  90    -0.00065227205746717
  91     0.011845159554647
  92     0.011622638237936
  93    -0.00053316433941072
  94    -0.0003914125166702
  95    0.00053351520615964
  96    -0.0050784616043395
  97    0.0032119323193467
  98    4.2254794985118e-05
  99    -0.00057653762915651
 100    -0.00017043063807289
 101    -0.0065301172399727
 102    -0.005228175353401
 103    -0.00078023700107375
 104    0.0011215104553707
 105    -3.7095514001749e-05
 106    0.0054793140752363
 107    0.0078546343032888
 108     0.050742743429698
 109    0.0065591767885491
 110    -0.00047214930928051
 111    -0.0087798138454435
 112    -0.017632764675221
 113    -0.0084585858088959
 114     0.012039651385114
 115    -0.0015389451859666
 116    0.0011695779890663
 117    -0.00044962871261495
 118    -0.00055059963102422
 119    -0.00094052865923173
 120    0.0034102614916909
 121    -0.030548087893534
 122     0.001070525749779
 123    0.0018761706068114
 124    -0.0045182973286377
 125    -0.010873001696653
 126    0.00016223386559621
 127    -0.00049302478664018
 128    -0.00023138504136746
 129    0.00012397734431148
 130    -0.0013719170968645
 131    0.00068915086850257
 132    -0.0008065993601049
 133    0.00033412979225316
 134    0.0010603818093296
 135    -0.0048815540190583
 136    -0.0093067298075931
 137    -0.032933716386914
 138    -0.00084966077376001
 139    0.0080613065213362
 140    -0.0028225059320452
 141    -0.0086801056397717
 142    -0.0030598787225202
 143     0.018670107350946
 144    -0.0012658535218744
 145    -0.00013598543514988
 146    0.00010367490880606
 147    -0.0017223435174812
 148    -0.00064457597136065
 149     0.013932621372603
 150     0.012266628673187
 151    0.00051919008492781
 152    0.0007111061102333
 153    3.6725775217026e-05
 154    -0.007413079798989
 155    -0.00088132386163001
 156    -0.0011283732386967
 157    0.0012448496470434
 158    -0.00025044157598343
 159    -0.0053628001043137
 160    0.0025443668037202
 161    0.00059751388772242
 162    -0.00029966988284824
 163    -0.0003052052162244
 164    0.0045699856044853
 165    0.0066278733953233
 166     0.042739822948459
 167    -0.0024764685101067
 168    -0.0086219327711163
 169    -0.0023036576104037
 170    0.0090499292155543
 171     0.018421614059621
 172    -0.0068122749234767
 173    -0.00034533977742086
 174    -4.0804055211368e-05
 175    -0.00097072081336368
 176    0.0010203868594109
 177    -0.0014102273077189
 178    0.00012193346333572
 179    0.0011644289815753
 180    0.00020333609425558
 181    0.0011427401125167
 182    0.00027702788150083
 183    -0.010035973742123
 184    -0.00011680292625519
 185    0.00020905743583997
 186    0.00011083945470008
 187    -0.00018307489641081
 188    0.0029963134051018
 189    -0.027232929840166
 190    -0.0030054359377153
 191    -0.0019968781998716
 192    -0.0017660352139788
 193    0.00011336961995313
 194    0.0004423496226032
 195    -0.00032470308547443
 196    0.0015403254327888
 197    -0.00086650052120632
 198    0.0018924007730108
 199    0.00078604631969803
 200    -0.0012790374878439
 201    -0.0012104895854336
 202    -0.00013374795132313
 203    0.00015031697768461
 204    -0.00015556505588468
 205    8.465598967192e-05
 206    -0.00012970336689357
 207    0.00071776306707804
 208     0.001352683161346
 209    -0.00037115657034556
 210    0.00033308779339049
 211    0.00015323104824606
 212    0.00041062509502462
 213    0.00071393090495489
 214    -0.00024328068090644
 215    0.00030428730718954
 216    -1.0180502806544e-05
 217    -0.0015958955697091
 218    -0.0036437969782975
 219    0.00050977317643594
 220    -0.000547298545882
 221    -0.00021157396435974
 222     0.004007666114844
 223     0.007906763803531
 224     0.025474169311539
 225    -0.0070309385803874
 226    -0.00023461526023829
 227     0.001353519683021
 228    0.0078380560684355
 229     0.015875539586542
 230    0.0068663563655094
 231    0.00058627315893324
 232    0.0013715973249387
 233    -0.00031938470339584
 234    -0.00095619015125833
 235    0.00063229632841684
 236    0.0066959244262697
 237    0.0040481052023722
 238    -0.001108719066362
 239    0.0010825081585523
 240    0.00015753615798178
 241    0.0047306870091726
 242    -0.0022245734619002
 243    0.00030181602950242
 244    -0.00057401087612455
 245    -0.00021683087311292
 246    -0.011717223481457
 247    -0.011625081011196
 248    -0.00050164813401502
 249    -0.00050075997321411
 250    0.00055276270723697
 251    -0.0054485624204022
 252    -0.0080240627235363
 253    -0.049741242822969
 254    0.0065857994325043
 255    -7.54871598208e-05
 256    -0.0085672296060865
 257    -0.017633151732698
 258    -0.010158298420447
 259     0.010431947323796
 260    0.0015646478149697
 261    -0.0012148894337097
 262    0.00052367255459545
 263    0.00042983153258489
 264    0.00092069350424253
 265     0.011633828947954
 266    0.00094146660110692
 267    -0.00039711992100521
 268    -0.00025746701744989
 269    9.1039737089552e-06
 270    -0.0038066558147216
 271     0.029210044859002
 272    0.00089044090805647
 273    0.0017338234996364
 274    -0.0042786771169384
 275    0.00025390664367876
 276    -0.00069654161568059
 277    -0.00087097961129416
 278    0.0002405746329336
 279    0.0010146226656218
 280    -0.004585351253624
 281    -0.0064586981559551
 282    -0.043486537983141
 283    -0.002272537064093
 284    -0.0087066943023023
 285    -0.002531762062853
 286    0.0087062148384453
 287     0.019224638557365
 288    -0.0055743501859421
 289    0.00034146249891321
 290    9.6762017657172e-05
 291    0.00088736574636149
 292    -0.0010436436888201
 293    0.0014234561629088
 294    0.0096281684914125
 295    -0.00060964987558192
 296    0.00021038850155335
 297    0.00019290320626509
 298    -0.00016104326814042
 299    0.00051632858726275
 300    -0.0012005404635769
 301    0.00016140663586022
 302    0.0011466775517934
 303    0.00033386068056172
 304    -0.0026724146624161
 305      0.02791456297803
 306    -0.0031577705792923
 307    -0.0021935340566181
 308    -0.0017761719696354
 309    0.0048768358713098
 310    0.0093377495570686
 311     0.032446524958554
 312    -0.00048544589082218
 313    0.0080808205731058
 314    -0.0028134100167038
 315    -0.010303312526342
 316    -0.0034165324263206
 317     0.018430970033357
 318    0.0013127323200342
 319    0.0002185553177273
 320    -7.4612253826272e-05
 321    0.0016934379534926
 322    0.00070700841393557
 323    -0.014014367265286
 324    -0.012348574781409
 325    0.00040021954129343
 326    0.00072329278600957
 327    4.1847422985198e-05
 328    0.0057239116412355
 329    -0.0033539287957931
 330    0.0005787589714921
 331    -1.6204573887442e-05
 332    -0.00039470787605012
 333    0.0071870029749363
 334    0.0027653366935025
 335    -0.0011892460529378
 336    0.00085051997919789
 337    -0.00020256481170558
 338    -0.00011278885702561
 339    -0.00043040282642166
 340    0.00023677364697895
 341     0.001522925104161
 342    -0.00088086300552214
 343    0.0019083346248946
 344    0.00068407724456499
 345    -0.0013557413850947
 346    -0.0011805799913253
 347    0.00014249872344575
 348    -0.00015638024489955
 349    0.00014995173481164
 350    -7.9333483261662e-05
 351    0.00012543632336435
 352    -0.00036200806743307
 353    -0.00056894191152548
 354    -0.00024765365464362
 355    0.00028376680394406
 356    -2.5657228299861e-05
 357    -0.00075754950384283
 358    -0.0014151047924008
 359    -0.00037234363469883
 360    0.00033929318253144
 361    0.00017239029983886
 362    0.0015923491863232
 363    0.0036654198325818
 364    0.00052082073127037
 365    -0.00053524832537415
 366    -0.0002181908377302
 Sym= A
 Ene=               7
 Spin= Alpha
 Occup=    1.00000
   1    -0.0042699881715049
   2     0.010940604452077
   3    -0.064731038342666
   4     0.078818035930161
   5    -0.0047738093604614
   6    -0.0062767805777606
   7    0.0099305370680563
   8    0.0073975202260011
   9     0.021492279588774
  10    -0.033993531002906
  11    -0.025313251107965
  12     -0.01475776422801
  13     0.022999081332694
  14     0.017031290477324
  15    -0.014766134512295
  16    -0.082659832310708
  17      0.13073554534216
  18    -0.052750427391436
  19     -0.11091983012463
  20    -0.0053595245757912
  21    -0.030696890142399
  22     0.048674406944947
  23     -0.01958200870353
  24    -0.041134888234855
  25    -0.0044004524852744
  26    -0.0011917228231179
  27    0.0019065818854164
  28    -0.0033011887252358
  29    -0.0069767502140839
  30    0.0049721222955496
  31    0.00059452128830006
  32    0.0042701681757917
  33    -0.010941041410583
  34     0.064733836764883
  35    -0.078842533428071
  36    0.0048103053663588
  37    -0.0062750990244009
  38    0.0099317758960258
  39    0.0073981613898967
  40     0.021485490351102
  41    -0.033998659624938
  42    -0.025315064838659
  43    -0.014689686695985
  44     0.023059363863892
  45     0.017021863224144
  46     0.014766872623462
  47     0.082674760577635
  48      -0.1307379264239
  49     0.052756150693993
  50      0.11093147544538
  51    0.0053224878745709
  52     0.030708122595307
  53    -0.048650261438891
  54     0.019622716127136
  55     0.041149466826115
  56    -0.0044000538451132
  57    -0.0011925628385436
  58    0.0019073107320562
  59    -0.0033006866144874
  60    -0.0069763331709284
  61    0.0049733788479097
  62    0.00059311449334945
  63    1.3944816321975e-06
  64    2.8613803481459e-06
  65    7.1693110668321e-06
  66       0.2410604877929
  67     -0.37781969259522
  68     -0.27412050724444
  69      0.21692462732979
  70     -0.33996780107558
  71     -0.24679178208187
  72    2.3515352206007e-07
  73    1.6902757148459e-06
  74    2.345906965221e-06
  75    7.092979079434e-07
  76    2.5055246631698e-06
  77    -0.0049306971009441
  78    -0.012590456791976
  79    -0.0092415272626802
  80    -0.013952195312976
  81    -0.0042180104290692
  82    -0.0040190822147654
  83    0.0094493906844604
  84    0.0050933483712566
  85    0.0046466707539584
  86    -0.00054021782329193
  87    -0.00093036761130174
  88    -3.6014906726748e-05
  89    0.0013645635542381
  90    -0.0010277622432628
  91    0.0059239706414607
  92    0.0019485558937728
  93    0.00095468928917678
  94    8.9432712717692e-05
  95    0.00038940184676193
  96    -0.00093027804887063
  97    -0.0017763873751673
  98    0.00067409282189297
  99     0.000109346733316
 100    2.2450603532472e-06
 101    -0.0027194162353571
 102    -0.0045438944358154
 103    -0.00041107372814126
 104    0.00021184635329683
 105    1.1499789646233e-05
 106    -0.0047673644591674
 107    -0.012233600910506
 108    -0.0083453803270813
 109    -0.0012161777153654
 110    -0.0083999117822011
 111     0.012326084894235
 112    -1.3255603803246e-05
 113    0.0084912675092757
 114    -0.0081967594060672
 115    0.0014626165905611
 116    -0.00072269431436257
 117    0.00069748155344209
 118    0.00036899345178225
 119    0.00028989255836483
 120    -0.0029005377151797
 121    -0.0058983594811011
 122    -0.00033627931212098
 123    -3.0628205188759e-05
 124    0.00061694369385669
 125     0.004763053537366
 126    0.0013430036589168
 127    0.00046583308242186
 128    0.00052047148018257
 129    -0.00085372070077402
 130    0.00022171059476152
 131    -0.00088246644000654
 132    3.8865502181583e-05
 133    0.00018144074355412
 134    -0.0009459951440873
 135    -0.004940760233947
 136    -0.012612917991442
 137    -0.0092999590676736
 138    -6.6698246459028e-05
 139     0.010042003775593
 140    -0.011336746319363
 141    -0.00097531514811594
 142    -0.0056765929340356
 143     0.010218201282811
 144    -0.0011663290291383
 145    0.0003916056424845
 146    -0.00014712646728787
 147    -0.0014247377618905
 148    -0.00074161757184684
 149      0.00597132644665
 150    0.0019079324793341
 151    0.00022631551371854
 152    -0.00065315316941525
 153    0.00077344727543343
 154    -0.0027166833113998
 155    -0.0044009481474846
 156    -0.00023041885081207
 157    0.00037577363831636
 158    -7.7695821918545e-05
 159    -0.0009850669555625
 160    -0.0018527037171484
 161    3.062224883589e-06
 162    -0.00057818860363004
 163    0.00036268616651325
 164    -0.0047879790316213
 165    -0.012207545126522
 166    -0.0088906586801652
 167     0.012845777546535
 168    0.0058853485344993
 169     0.004906954003313
 170    -0.011241650843825
 171    -0.0029063718479935
 172    -0.0022880914524019
 173    0.00060825212986754
 174    0.00039200520332852
 175    0.0013150230358573
 176    -0.00096200119563641
 177    0.00070904100332004
 178    -0.00043100741567602
 179    -0.0014440175003125
 180    -0.00051826290983166
 181    -0.00037674325837418
 182    -0.00048431676401205
 183    0.0053489828559764
 184    0.0016236303013256
 185    -0.00079041013586285
 186    -0.00066503551763774
 187    -0.00020359028416178
 188    -0.0027338746104199
 189    -0.0052383810868617
 190    0.0001967362630329
 191    0.00048695276446597
 192    0.00024779986810521
 193    0.0022776504947237
 194     0.011540521695293
 195    -0.018119990846471
 196    0.0043624517833317
 197    -0.0069116525503308
 198    -0.0050700547982887
 199    0.0054315182279902
 200    -0.0082794275624818
 201    -0.0058235548570203
 202    -0.00014985947076474
 203    -0.00075632352567563
 204     0.001204775257218
 205    -0.00048492320255399
 206    -0.0010471212306221
 207    0.00057319083819723
 208    -0.0010884877095877
 209    -0.00010421434001132
 210    0.00012088913687628
 211    8.6003997059169e-05
 212    0.0005398939652469
 213    -0.0010699608499812
 214     -8.9302841238e-05
 215    0.00013967010317271
 216    6.6342912371269e-05
 217    0.0004539430265117
 218    -0.0015555182549688
 219    -4.739171992142e-05
 220    9.0114817810678e-05
 221    6.6430988581137e-05
 222    0.0049233442624323
 223     0.012586067497028
 224    0.0091237265480662
 225     -0.01397806133911
 226    -0.0041805816014321
 227    -0.0040249403616949
 228    0.0094891710284569
 229    0.0050451683414187
 230    0.0046480092238147
 231    0.00049322796631334
 232    0.00092892329705476
 233    7.6166688464246e-05
 234    -0.0013633536392654
 235    0.00098962631223227
 236    0.0028233321300642
 237    0.0048098010496496
 238    -0.0004997760369232
 239    0.00022465604903113
 240    1.6662579328264e-06
 241    0.00064930717366214
 242    0.0014698757560469
 243    0.00076881343227283
 244    0.0001111820254783
 245    -3.0089829213345e-05
 246    -0.0057334783661864
 247    -0.0018238824074431
 248    0.00097417868959371
 249    5.1065610284557e-05
 250    0.00040993713194337
 251    0.0047723163848551
 252     0.012203421504646
 253    0.0086276825939406
 254    -0.0011882220779612
 255    -0.0084282253850456
 256     0.012291254285005
 257    -1.6383138317189e-05
 258    0.0085084799076993
 259    -0.0081838792496595
 260    -0.0014954027457081
 261    0.00075909153547227
 262    -0.00072175359686057
 263    -0.00033157294772658
 264    -0.00025218406962707
 265    -0.0050563936005232
 266    -0.0014730435144477
 267    0.00042756505899402
 268    0.00052814970305009
 269    -0.00083631280272133
 270    0.0028078219439907
 271    0.0055684783755095
 272    -0.00031538715829226
 273    -2.6387721405221e-05
 274    0.00056547795985073
 275     0.000107845239658
 276    0.0011262080376757
 277    4.1559165979982e-05
 278    0.00018763031832268
 279    -0.00086826702242755
 280    0.0047803004593454
 281     0.012217927817824
 282    0.0086976864589165
 283     0.012844266285538
 284    0.0059114764760166
 285    0.0049165246816631
 286    -0.011215681906573
 287    -0.0029067249156575
 288    -0.0022739814970002
 289    -0.00062541418674175
 290    -0.00039571924507748
 291    -0.0012649195709443
 292    0.00095439660509738
 293    -0.00072012997341059
 294    -0.0051742813462503
 295    -0.0015422928564351
 296    -0.00078937477319253
 297    -0.00069657188449145
 298    -0.00019684367198187
 299    0.00021636861372286
 300    0.0012321277342858
 301    -0.00054379703933634
 302    -0.0004075564426678
 303    -0.0005361646944292
 304    0.0028035669518582
 305    0.0054489682540547
 306    0.0002221627420921
 307    0.00052222582787891
 308    0.00026775484425189
 309    0.0049533771554182
 310     0.012634636884744
 311    0.0093958323919436
 312    -3.2707719210985e-05
 313     0.010032554888002
 314    -0.011328557249011
 315    -0.0010357350630111
 316    -0.0056592145026425
 317     0.010215720186792
 318     0.001176403356542
 319    -0.00036062719521725
 320    0.00015519672979617
 321    0.0014286093334463
 322    0.00080397862309198
 323    -0.0061231022568076
 324    -0.0020361358268783
 325    0.00018225022910043
 326    -0.00064610989932757
 327    0.00076507806209857
 328    0.0012340361141066
 329    0.0021599449177395
 330    3.9944523550458e-06
 331    -0.00047863226027727
 332    0.00034098583214098
 333     0.002607702199953
 334    0.0041835018670246
 335    -0.00020225241689506
 336    0.00029587958936266
 337    -3.0940606396827e-05
 338    -0.0022775572123731
 339    -0.011540381502748
 340     0.018124120851845
 341    0.0043698527099635
 342    -0.0069025810981236
 343    -0.0050774104574661
 344    0.0053969322526553
 345    -0.0083134373357559
 346    -0.0058007084793495
 347    0.00015050104713494
 348    0.00075556699073476
 349    -0.001205633658685
 350    0.00048569294589104
 351    0.0010467112903385
 352    -0.0005364601651369
 353    0.0011234856914135
 354    -8.6275353622586e-05
 355    0.00013634360806189
 356    6.430631747783e-05
 357    -0.00057523471899355
 358    0.0010241369861366
 359    -0.00010643350203683
 360    0.00012493888921934
 361    8.792605029512e-05
 362    -0.00045574214985289
 363    0.0015524100659088
 364    -4.8003644119543e-05
 365    8.9973769370109e-05
 366    6.5884744125298e-05
 Sym= A
 Ene=               8
 Spin= Alpha
 Occup=    1.00000
   1    1.7163851899976e-06
   2    -3.9087879667368e-06
   3    2.8422354923686e-05
   4    -0.0001095950584118
   5    -0.00012967692227489
   6    -5.4359774679146e-06
   7    -4.3436636920903e-07
   8    -1.2962908186689e-05
   9    1.9411997448195e-05
  10    1.8469281966396e-06
  11    4.4998733115945e-05
  12    -6.8986398422607e-05
  13    -2.6806332159858e-05
  14    -0.0001318765135797
  15    0.00010821879380304
  16    0.00015258978807603
  17    1.4855845377414e-05
  18    3.6238169281353e-05
  19    -9.5178491642846e-05
  20    -0.00013932409423785
  21    -0.00012601132142715
  22    -7.3088899071287e-05
  23    -1.3732603340404e-05
  24    5.045649588536e-05
  25    -8.5741066296384e-06
  26    -2.0454736858493e-06
  27    -1.316397355646e-05
  28    5.428156626487e-06
  29    -6.9661713232593e-07
  30    -1.2119690409751e-06
  31    -6.0626669392247e-07
  32    -9.7116853088905e-06
  33    2.563948110774e-05
  34    -0.00014424642433354
  35    0.0003007973130214
  36    0.00032007783107019
  37    -0.00022384277183478
  38    3.855962904315e-05
  39    -0.00023983060270793
  40    0.00072858993141488
  41    -0.00012622951442512
  42    0.00077898673144932
  43    -0.0011357045550943
  44     0.000226069036207
  45    -0.0011003999140219
  46     -0.38142262703009
  47     -0.63571479871782
  48    -0.075921442529186
  49     -0.15846944788154
  50      0.51078538236124
  51    -0.080990529668026
  52     -0.13504399107691
  53    -0.016152415374555
  54    -0.033732166260903
  55       0.1085801904717
  56    -0.00099038229372908
  57    -0.00085504753191484
  58    -0.0006580003482686
  59    0.00054424975725703
  60    -0.00031850995530313
  61    -0.00080311809424008
  62    -0.00094123520749916
  63    -2.0327366362439e-05
  64    -4.882824145276e-05
  65    -3.0151918140546e-06
  66    -0.00054728827856038
  67    0.00018798872016551
  68    -0.000740946089872
  69    -0.00030052852846643
  70    0.00015389696269645
  71    -0.00043000366977075
  72    -0.00042550093366295
  73    -0.00069297699021587
  74    -9.4376050785974e-05
  75    -0.00017213037777105
  76    0.00055739106347794
  77    -5.4233910639479e-05
  78    -0.00018125311605778
  79    0.00046548124873526
  80    5.9419364998116e-06
  81    0.00016266844729422
  82    0.00021209795073187
  83    6.5802870792642e-05
  84    -5.7536645893823e-05
  85    -0.00019081484800028
  86    5.3736308012248e-06
  87    -1.9475251631535e-05
  88    1.1343229662769e-05
  89    1.5253481250208e-05
  90    -7.5199693053213e-07
  91    7.0015012124483e-05
  92    0.0001646025178315
  93    1.2289697112612e-08
  94    -7.7014290466395e-06
  95    -8.9824897014774e-06
  96    -4.7813626171257e-05
  97    -0.00038819006994918
  98    -3.0110329324488e-06
  99    -8.0929578014756e-06
 100    5.0608781817061e-05
 101    -0.00013682574166436
 102    -0.00061691161516591
 103    -4.0565004785219e-05
 104    2.7124039193851e-05
 105    1.7439523672311e-05
 106    2.136556787199e-05
 107    9.4705714773233e-05
 108    -0.00044452833238967
 109    -1.8544079403658e-05
 110    -0.00015741038324598
 111    -1.15771101784e-06
 112    0.00019144934832675
 113    9.0587928585366e-05
 114     0.000138552788386
 115    -1.7536372527828e-05
 116    -1.3539963266093e-05
 117    -1.2406700766104e-05
 118    1.2991444275499e-05
 119    4.0867869067447e-06
 120    9.8582792030872e-05
 121    0.00057020498065213
 122    7.9621586076088e-06
 123    -3.3606807577314e-05
 124    -6.0462129369391e-05
 125    -3.3023539562879e-06
 126    -6.6645725167079e-05
 127    -8.8346440313646e-06
 128     1.75622931258e-05
 129    1.1986386509653e-05
 130    4.3877472313461e-06
 131    0.00028518788173744
 132    -1.3993700492266e-05
 133    -1.8858835992943e-05
 134    -1.7322465353685e-05
 135    -5.5537815038914e-05
 136    -0.00017994142486312
 137    0.00045738704281513
 138    -6.372190205831e-05
 139    0.00010950625846797
 140    0.0002453349972854
 141    -1.276697323815e-05
 142    -0.00016482727284321
 143    -0.00012449963485215
 144    -3.3277809309958e-06
 145    -3.277750751903e-07
 146    9.7364930699383e-06
 147    -2.5186307285945e-05
 148    2.8237726904638e-06
 149    7.3616488224748e-05
 150    0.00015913675539506
 151    2.6576188516456e-06
 152    -4.9200645088448e-06
 153    -1.2148952880076e-05
 154    -0.00013969342868816
 155    -0.00066477236347715
 156    -2.5450843124908e-05
 157    4.6787793255454e-05
 158    9.3059672514093e-06
 159    -4.7751646166738e-05
 160    -0.00037210293975685
 161    3.0113419287624e-05
 162    2.6554928073982e-05
 163    3.2104445771492e-05
 164    4.0678916168127e-05
 165    0.00015175930994115
 166    -0.00054013656868685
 167    0.00019260511300465
 168    -4.6771962030533e-05
 169    -0.00011125738874608
 170    -7.6294771867943e-08
 171    -3.5663766741247e-05
 172    0.00024518573462583
 173    -1.9776136734232e-05
 174    -2.2187764140115e-06
 175    -1.8098889125282e-05
 176    -6.4017886061909e-06
 177    3.9675437590028e-06
 178    1.4512499889729e-05
 179    0.00044347084140891
 180    1.3688936288814e-05
 181    1.3515973231197e-05
 182    -3.8450508888083e-05
 183    -2.7306028099794e-05
 184    -0.00013298428923769
 185    -1.4081228101788e-05
 186    1.3522585069048e-05
 187    7.8015520803518e-06
 188    0.00013822433643762
 189    0.00069817728000013
 190    8.3196017819864e-06
 191    -5.2988787822784e-05
 192    -4.6441435317604e-05
 193    -3.0000937606793e-06
 194    -4.8956280634225e-06
 195    -2.463720374353e-05
 196    1.3879132961841e-05
 197    2.3863064069566e-06
 198    2.3739384171517e-05
 199    -4.3426796776972e-05
 200    1.2853158000226e-05
 201    -4.6753656631056e-05
 202    2.0406073733595e-06
 203    -3.1360245188136e-06
 204    1.9033082043024e-06
 205    -2.1047774412373e-06
 206    5.1578334257245e-06
 207    1.0074707522818e-05
 208    -4.9623664319129e-06
 209    4.0690089246835e-06
 210    -1.9887343474651e-07
 211    -3.2754495347378e-07
 212    1.0993549315929e-05
 213    -1.0645454904497e-06
 214    1.0930105032458e-06
 215    -3.6447953565543e-06
 216    1.5168848203972e-06
 217    -1.5911140899032e-05
 218    6.9093422463815e-05
 219    -5.4692435707788e-06
 220    4.8338288632651e-06
 221    -3.2400105375758e-07
 222    3.3172958088488e-07
 223    -2.6980851764362e-05
 224    0.00058203829283005
 225    -0.0013933982023868
 226    -0.012716201018601
 227     0.015799196381256
 228      0.00167137097485
 229    0.0082695922925367
 230    -0.011482830665524
 231     0.002497517036208
 232    0.0033546561709381
 233    -0.00015203923727319
 234    0.00095655691523285
 235    -0.0021989558094361
 236    -0.016195921120764
 237    -0.0089475374831293
 238    0.00010001272565597
 239    -0.0012990849725424
 240    -0.00078496321164614
 241     0.024760714332487
 242     0.011526967494604
 243    0.00070527911960644
 244    -0.00021327912205977
 245    0.0014756556134656
 246    -0.0093523898927234
 247    -0.0037461043821833
 248    -0.0006426405947424
 249    0.00089104190796692
 250    -0.00011829422764351
 251    1.0556032328993e-05
 252    9.2934607038365e-05
 253    -0.00062085415995817
 254    -0.019205242839703
 255    -0.0069181482821542
 256    -0.0068682548639709
 257     0.012723851639132
 258    0.0052649006600679
 259    0.0054456499692012
 260    0.0021756000572421
 261    0.0028250248442557
 262    0.00067292849953935
 263    0.00045038156625602
 264    -0.0032183333322789
 265     0.013041057360094
 266     0.005459872586875
 267    0.00088094741947192
 268    -0.00039043301162795
 269    -0.00087023662370445
 270     0.013594518761606
 271    0.0074809918266308
 272    -0.00038747989847622
 273    0.0013263940950599
 274    0.00038665843791899
 275    -0.025971651460255
 276    -0.012278928845305
 277    -0.0014006460989554
 278    -0.0011352898400031
 279    0.00036082823564153
 280    -3.2061914948924e-06
 281    5.6325491560581e-05
 282    -0.00065423655693767
 283    0.00017582852673221
 284     0.012955436647735
 285    -0.017087565026744
 286    -0.00031954415128002
 287    -0.0080963780584776
 288     0.012310945658198
 289    0.0016698519222314
 290    0.0031885875251796
 291     0.001174830354565
 292    0.00075674783154565
 293    -0.0029596537204852
 294     0.012397478562896
 295    0.0051447862279913
 296    8.7477874627499e-05
 297    -0.0012108535894024
 298    -0.00037121875448725
 299    -0.025898371667117
 300    -0.012151423005009
 301    0.0010026298884178
 302    0.0012280957889361
 303    -0.00089393094637088
 304     0.014199772696508
 305    0.0077812786246044
 306    -0.0010702814285629
 307    0.00071726731491312
 308    0.00068528157148348
 309    4.9658788778834e-06
 310    5.2246638327807e-06
 311    0.00033453630803451
 312     0.018009887156544
 313    0.0071609888125464
 314     0.005612326156202
 315    -0.011998217639304
 316    -0.0055564092817939
 317    -0.004062502147005
 318    0.0020998399905905
 319    0.0037722855161502
 320    0.0004927876776243
 321    0.00069337337097178
 322    -0.001903623819947
 323    -0.0061680473872659
 324    -0.0024743590061389
 325    -0.00096673672101065
 326    0.00027646006883007
 327    -7.5626895872627e-05
 328     0.024172398557984
 329     0.011619711763247
 330    0.0007608228617465
 331    0.00025073521254243
 332    0.0014682344274693
 333    -0.018489457523504
 334    -0.0099068958865796
 335    0.0010585311465027
 336    -0.00040701394981896
 337    -0.0011305717195442
 338    -3.1599768533804e-05
 339    -8.2749497489105e-05
 340    1.174461255131e-05
 341    0.0015362609930657
 342    -0.00022138431076357
 343    0.0016220409953749
 344    -0.00093101929707582
 345    0.00015377905394173
 346    -0.00087485724677383
 347    -0.00023048652661742
 348    -0.0003625545850401
 349    -5.5270484284027e-05
 350    -8.6776093650575e-05
 351    0.00028404765460702
 352    -0.00047962535227402
 353    -0.00027485599257615
 354    0.00011402942903123
 355    0.00023598755676548
 356    -0.00023970932486365
 357    -0.00038360075130895
 358    -0.00026113292635888
 359    -0.00030811427175868
 360    -0.00017778754970755
 361    -3.909630669989e-05
 362    0.00090522889382646
 363    0.00026674971901621
 364    0.00019236625928654
 365    -7.8038271361886e-05
 366    0.00025316556145422
 Sym= A
 Ene=               9
 Spin= Alpha
 Occup=    1.00000
   1    1.4248645112251e-06
   2    -3.8108837056593e-06
   3    2.1305662645698e-05
   4    0.00029498318309617
   5    -0.00053931683100978
   6    0.0026084104077423
   7    0.0013128880953834
   8    0.00045836456933951
   9    -0.0087102257371433
  10    -0.0043745349602281
  11    -0.0015273910728107
  12     0.021898932372594
  13     0.010564725223422
  14    0.0037262600672347
  15    -8.5573994010123e-05
  16    -0.00011030905357883
  17    -5.7204006052806e-05
  18    0.00026606683120366
  19    -0.00013893504052344
  20    0.00084046725337778
  21    0.0026557910417013
  22    0.0026497104864257
  23    -0.0051715192638725
  24    0.0031822357020609
  25    0.00017407844770776
  26    6.3089394863922e-05
  27    0.00031719049226353
  28    -0.0012121808083375
  29    0.00039860921998675
  30    -4.9057952390447e-05
  31    -0.0013128731728852
  32    9.1419367457316e-06
  33    -2.2021713877132e-05
  34    0.00014436196535358
  35    -0.00087299355185056
  36    0.00061642682918302
  37    0.0040895015270362
  38    0.0020377474242915
  39    0.00070333443108061
  40    -0.013494834042264
  41    -0.0067173616322069
  42    -0.0023188130715746
  43     0.046501272931695
  44     0.022997163242251
  45    0.0080118605048675
  46      0.13291027919589
  47      0.36508034746434
  48      0.31822336444178
  49     -0.66109283259989
  50      0.39595242892209
  51     0.026703212101047
  52     0.072966548533459
  53     0.063019987303331
  54     -0.13158800628932
  55     0.078543299022226
  56    0.00035915204636143
  57    0.00011526716786588
  58    0.00080550901932326
  59    -0.0029744164362371
  60    0.0010460221283569
  61    -6.9652014852673e-05
  62    -0.0032101588787053
  63    -2.6485576658719e-05
  64    -8.6060692713543e-05
  65    0.00011509348119805
  66     0.096668782115944
  67     0.048699059397845
  68     0.017032120829946
  69       0.1017811045891
  70     0.051220034964096
  71     0.017836700427692
  72    -0.00089480574819588
  73    -0.0024737187559337
  74    -0.0021754607429778
  75    0.0044991509937983
  76    -0.0027063106612057
  77    -0.0032835839213976
  78    -0.0062818397004523
  79    -0.019723761086888
  80    -0.0080891813319644
  81    0.0024458941854035
  82    0.00045208049244951
  83    0.0080444603141444
  84    0.00052043229676633
  85    0.0053495354742301
  86    -5.1965659165541e-05
  87    -0.00034061402742274
  88    0.00011779989939019
  89    0.00061727243910814
  90    -0.00044582299008496
  91    0.0072189224797924
  92    0.0033679520120192
  93    -0.00024418948928631
  94    -3.0355634139155e-05
  95    0.00027093984863963
  96    -0.0013182435338238
  97    -0.00036239879933532
  98    0.00040460763926719
  99    -0.00028094275465874
 100    0.00012931227655996
 101    -0.004000610337306
 102     0.007290024369125
 103    -0.00068600894000765
 104    0.00016231960704514
 105    -8.51617823739e-05
 106    -0.00053908029441491
 107    -0.0013533448203236
 108    -0.0011783699654222
 109    0.00051285953702566
 110    4.4586855867549e-05
 111    0.0015878477331565
 112    -0.0028307874816523
 113    0.0016262733718621
 114    -0.001424489109326
 115    0.0001911382473752
 116    7.4739986313038e-05
 117    0.00017636190164311
 118    -8.5291558686105e-05
 119    -0.00011356168074462
 120    -0.0011191353251314
 121    -0.0018640581644073
 122    2.1822275414547e-05
 123    0.00032541280800515
 124    -1.7429366602304e-06
 125    0.0015395103609852
 126     0.002447839916739
 127    0.00014534274303616
 128    -3.182207298212e-05
 129    0.00011924932795818
 130    -0.00091020103451624
 131    -0.0012742773031329
 132    2.9119216920363e-05
 133    2.7836709994984e-05
 134    -0.00011360213293005
 135    0.00066210447608859
 136    0.00098153113385145
 137    0.0060054673553527
 138    0.0021816952023871
 139    -0.0011220493147774
 140    0.00062610867429826
 141    -0.0053751884636152
 142    0.00052461451300703
 143    -0.0013476898342791
 144    -3.152154828776e-05
 145    -0.00032491306885845
 146    3.7584285496635e-05
 147    7.8638974159521e-05
 148    0.00013682498945741
 149    -0.0010808767773164
 150    0.00075412523850805
 151    4.6929245963366e-05
 152    1.4877537630222e-06
 153    -4.7549679151961e-05
 154    0.00080918181067132
 155     -0.00649138515614
 156    -9.5452178515087e-05
 157    -0.00035933026351591
 158    0.00040972482804963
 159    -0.00077714090978061
 160    0.00088892571031763
 161    -0.00012373242731861
 162    0.00017164809844147
 163    -0.00010776049854891
 164    0.0032835901375647
 165    0.0062729396834502
 166     0.019531334252932
 167    -0.0029715263759127
 168    -0.0065029968680859
 169    -0.0045474191125535
 170    0.0076640673351183
 171    0.0055207340681543
 172    0.0011465492961445
 173    -0.00034346980706764
 174    -3.3755796906907e-05
 175    -0.00060120417836903
 176    0.00029523887626028
 177    -0.00033532580009462
 178    0.0008485211314859
 179    0.00071339757106453
 180    0.0001251394334113
 181    0.00048183158139098
 182    0.00016653829458866
 183    -0.0068868616799682
 184    -0.0033991290405504
 185    -5.0665892376829e-05
 186    6.7235027762328e-05
 187    -0.00037430380760567
 188    0.0040734843730802
 189    -0.0071435725954359
 190    -0.00030763560182406
 191    -0.00063386302404738
 192    -0.00040356839192846
 193    1.4375589000544e-05
 194    4.5259939735321e-05
 195    7.7377481473985e-05
 196    -0.00017985494959252
 197    -0.0001214641965672
 198    -5.3293939355813e-05
 199    9.3453707622235e-06
 200    -0.00024042149148375
 201    -0.00020404190290656
 202    2.2269357804498e-05
 203    2.8112657263016e-05
 204    8.2397921771521e-07
 205    -3.5679754203951e-05
 206    1.3387314541479e-05
 207    -3.8563944741728e-05
 208    -0.00058927723913372
 209    3.256072398435e-05
 210    -2.6678905109219e-05
 211    -3.5043397254178e-05
 212    1.1563422876004e-05
 213    0.00090297710483641
 214    -7.795808740026e-05
 215    7.561161760357e-05
 216    6.8656040385512e-05
 217    -3.5739175903484e-05
 218    -0.00076873702145742
 219    4.0421603871725e-05
 220    -5.5113811341687e-05
 221    -3.0849540534133e-05
 222    0.0042717118636068
 223    0.0067045156018948
 224     0.034769398025158
 225    -0.0026623756118357
 226    -0.014994455354454
 227    -0.012573266881037
 228     0.011019923161263
 229     0.014372369634384
 230     0.017796542943732
 231    -0.0010089110639712
 232    -0.0015450021507579
 233    -0.0013876453430252
 234    0.0029401166658733
 235    -0.0016665713502887
 236    -0.017538223676444
 237    -0.017795961598905
 238    -0.0012171829001473
 239    -0.0015204189561001
 240    0.00038468238284126
 241    -0.0039433474217126
 242    -0.0011709895807314
 243    -0.00015594447736158
 244    0.00056949077053235
 245    0.00025182035964281
 246     0.015400500733395
 247    0.0079294814085821
 248    0.0010801419797983
 249    2.3229338650784e-05
 250    -0.00083435212683216
 251    0.00066801194691539
 252    0.0013474429066947
 253    0.0034361281622175
 254    0.0017896505970897
 255    -0.002135638813544
 256    0.0010924161994438
 257    -0.0078842344083337
 258    0.0029049769120854
 259    -0.0032043328800956
 260    0.00064521710699709
 261    -0.00012455882071092
 262    0.00022526368086042
 263    3.0181473790677e-05
 264    0.0008034987518302
 265    0.0022502540658636
 266    -0.001208374488387
 267    0.00046627221823086
 268    4.2731819947808e-05
 269    -2.163694192414e-05
 270    -0.0024135518064442
 271    0.0015485565573106
 272    -1.3135845933125e-05
 273    0.00039957937760373
 274    0.00015896856529587
 275    -3.1720834426676e-05
 276    0.00076675330013522
 277    -6.8618349929219e-05
 278    -0.00018463001604911
 279    -0.00016488769051204
 280    -0.0041471565160825
 281    -0.0064060807800549
 282     -0.03424532553321
 283    -0.016850168203161
 284    0.0069008529130922
 285    0.0050154755433707
 286     0.024158602843022
 287    -0.0016900258106449
 288    -0.0032354606640932
 289    -0.0016069274177125
 290    -0.0013046118072222
 291    -0.0016753898438451
 292    0.0021195044281769
 293    -0.0023000556533078
 294    -0.014053390620315
 295    -0.0066828692264316
 296    0.00024131633413371
 297    0.00036857031205533
 298     0.001054670044584
 299    0.0017287921501891
 300    -0.00033920988158502
 301    0.00039843597983192
 302    -0.00026642801667369
 303    -0.00014899889619124
 304     0.018712372538156
 305     0.017734461861779
 306    -0.001499060911431
 307    0.00042388447770077
 308    -0.0012091494495029
 309    -0.00086610982226694
 310    -0.0012014005304038
 311    -0.008335797637451
 312    -0.0013706208973724
 313    0.0016166433400074
 314    0.0038314370266715
 315    -0.0067260901493668
 316    -0.0021521653685257
 317    -0.0063413024815205
 318    0.00080088931105191
 319    0.00029466446566263
 320    0.00038373756223386
 321    7.9278581489349e-05
 322    0.0004119139264281
 323    -0.0031518185651301
 324    -0.0029450766410866
 325    0.00060358118434316
 326    0.00047851848738927
 327    0.00017955704998318
 328    0.0010384868750954
 329    -0.0015593560291916
 330    3.7323476750553e-05
 331    -0.00029897865824826
 332    -0.00049938642630593
 333    0.0037075886780143
 334    0.0089034915732124
 335    -0.0007781379349812
 336    -0.00022176931312601
 337    0.00064704666162683
 338    1.2274967117952e-05
 339    -4.6181153907023e-06
 340    -1.6420404210248e-08
 341     0.019234172189708
 342     0.009532949059006
 343    0.0034404451992915
 344    -0.015492917562217
 345    -0.0079226026580403
 346    -0.0029535074718745
 347    -0.00013021687003977
 348    -0.0016783732233361
 349    -0.0019970256202199
 350    0.0032531177812335
 351    -0.0026068838126904
 352    -0.025589097251268
 353    -0.012899964067611
 354    0.00058340436427616
 355    0.0017973499021806
 356    0.0006266694679906
 357      0.00983628411805
 358    0.0051878577120147
 359    -0.00034336593413348
 360    -0.00013576444847444
 361    -0.0010822219327821
 362     0.015937461865267
 363    0.0082043194958312
 364    0.00052942753491127
 365    -0.001268151461878
 366    0.00060502569605599
 Sym= A
 Ene=              10
 Spin= Alpha
 Occup=    1.00000
   1    -2.6541567688126e-06
   2    6.540402539389e-06
   3    -4.1876918617272e-05
   4    -0.00080235914058813
   5    0.0018935527112267
   6    -0.00035525200361986
   7    0.0015931262930268
   8    -0.0024643886098071
   9    0.0011949445313478
  10    -0.0053308759201962
  11    0.0082201980314432
  12    -0.0034025515519391
  13     0.013896281694582
  14    -0.020221456105019
  15    0.00023114502363958
  16    -8.7016391995389e-05
  17    0.00011140388714185
  18    0.0001444149015702
  19    0.00015589287638966
  20    -0.0053705871564057
  21    0.0027180486567115
  22    -0.0023420571802677
  23    -0.0022709595035936
  24    -0.0024663401672704
  25    -0.0003657630349869
  26    0.00080326807927576
  27    -0.0014558916778917
  28    -0.00025434659933768
  29    0.00027349069933046
  30    0.00067028451263867
  31    -7.3218998515688e-05
  32    -2.0340306277896e-05
  33    5.0944879453632e-05
  34    -0.00031314552805486
  35    0.0018694722330227
  36    -0.0018184327277124
  37    -0.00057021705147277
  38    0.0025250091791461
  39    -0.0038513488885991
  40     0.001890444022204
  41    -0.0083413057591561
  42     0.012697521992526
  43    -0.0068188882715704
  44      0.02896637068287
  45    -0.043405086862996
  46     -0.70348792704082
  47      0.28668801937096
  48     -0.28740156596261
  49     -0.30456018571796
  50     -0.30599964605658
  51     -0.14012124137644
  52     0.056395257963553
  53    -0.057093624733722
  54    -0.060948021799752
  55    -0.060838166288451
  56    -0.00089313742922125
  57    0.0020434486122074
  58    -0.0035304450492576
  59    -0.00055098175974501
  60    0.00069450189716821
  61    0.0016578356070026
  62    -0.00022808251825393
  63    8.7173596181436e-05
  64    0.00025497851836071
  65    -0.0001459113510673
  66    -0.013280644899028
  67     0.059137130205203
  68    -0.091406560042753
  69    -0.014112639680311
  70     0.062342804674479
  71    -0.095944793732409
  72    0.0047783392904505
  73    -0.0019694785928789
  74    0.0019568693477375
  75    0.0020589923542825
  76    0.0020857080261612
  77    0.00052531707608658
  78    0.0013154136526122
  79    0.00098216123495639
  80    0.0013773602453751
  81    0.00093699406192647
  82    -0.0012068977958915
  83    -0.00099054334374844
  84    -0.0047192826056487
  85    0.0013506530777798
  86    0.00016494932418676
  87    0.00028339843334066
  88    -0.0001037061825279
  89    2.0504477678781e-05
  90    -3.1514449209297e-05
  91    -0.0016191552110858
  92    -0.0022775714108788
  93    0.00012233599068527
  94    7.6455389264701e-05
  95    -9.3682461164423e-05
  96    0.0013809193794922
  97    -0.00087616729525046
  98    7.2206241562249e-05
  99     3.23880967305e-05
 100    1.383610634919e-05
 101    0.0006513059568861
 102    0.0042806383287697
 103    -0.00026651572349952
 104    -0.00032573384542942
 105    -6.9402389263701e-05
 106    -0.0033265300020544
 107    -0.0060041648767229
 108    -0.021957801063341
 109    -0.0039449301028531
 110    0.00040915879627267
 111    0.0079203257303948
 112    0.0056581372227659
 113    0.0040563804915992
 114    -0.0076205660765533
 115    0.0006113797561801
 116    -0.00029273817248469
 117    0.00028081221583755
 118    6.9815830802214e-05
 119    0.00033666185543802
 120    -0.0039175896184301
 121     0.010853527223115
 122    -0.00031967642417886
 123    -0.00019681797980707
 124     0.001049690529253
 125     0.006228951868468
 126    0.0017683485505486
 127    0.00030368104378146
 128    0.00011036823669021
 129    0.00014532276386836
 130    0.00057228239908911
 131    -0.00024535053693026
 132    0.00025415764836023
 133    -0.00012216657895566
 134    -0.0004930726770886
 135    0.0032672968329896
 136     0.006382996872452
 137     0.018682009655245
 138    0.0024681956190922
 139    -0.0077068140930279
 140    0.0020924306238177
 141    -0.0011893585159869
 142    0.0046337520016465
 143     -0.00805829977141
 144    0.00035562308383925
 145    -0.0001366684883239
 146    -6.6047366415551e-05
 147    0.00068181579214044
 148    0.00029752322154434
 149    -0.0073340792893837
 150    -0.0041011153921429
 151    -0.00013720692367968
 152    -0.00036973730055723
 153    -7.2605912548705e-05
 154    0.0039715810253763
 155    -0.0049931075286867
 156    0.00034904355913051
 157    -0.00047027709013784
 158    0.00015327482486851
 159    0.0017501020381953
 160    2.6857375493751e-05
 161    -0.00034662923351032
 162     0.000280134170045
 163    -0.00012241342814977
 164    -0.00067471502800743
 165    -0.00092831666698532
 166    -0.006407206861686
 167    0.00031483314819539
 168    0.0023436009575086
 169    -4.4072689358842e-06
 170    -9.911939941387e-05
 171    -0.0048361744991985
 172    0.0018068919260535
 173    -2.5155956087934e-05
 174    -7.116668828106e-05
 175    -1.0149264919766e-05
 176    -0.00011575176644434
 177    0.00027934606505238
 178    0.00079245237471844
 179    0.00078460149426693
 180    -3.1038934313699e-06
 181    -0.0001349813208201
 182    -5.2641803237018e-05
 183    0.00097783150490206
 184    -0.0013269303218112
 185    -7.1036665195283e-05
 186    3.6061040971342e-05
 187    -2.5790270871419e-05
 188    -0.00045061227890962
 189    0.0054284458292151
 190    0.00045358851707437
 191    0.00019975630500672
 192    0.00014785321887281
 193    -2.2772814674135e-05
 194    -8.4082125525989e-05
 195    -6.612577425748e-06
 196    5.2099007375328e-06
 197    -7.8745757547625e-05
 198    0.00023065302629646
 199    -0.00017655930588303
 200    0.00024344084172091
 201    0.00039712351877612
 202    -4.1623628431681e-05
 203    -7.094239194222e-06
 204    -1.2701474474074e-05
 205    -3.2767217888778e-05
 206    -2.2304785934755e-05
 207    1.2966707614139e-05
 208    -0.00074230996360272
 209    3.6185995567923e-05
 210    -0.00010665185864613
 211    -3.615580903843e-05
 212    4.0252647635315e-05
 213    0.00029856096401345
 214    1.3219568489965e-05
 215    2.7505867768277e-05
 216    1.1280493865658e-06
 217    5.3319793787016e-05
 218    0.00091788911442008
 219    -5.0845196059273e-05
 220    6.9868663774684e-05
 221    3.8135346641658e-05
 222    -0.00067275584756438
 223    -0.0013468529014171
 224    -0.0034229990557364
 225    0.0010472725901465
 226    0.0023905444076372
 227    0.00097733414217329
 228    -0.0017517595815385
 229    -0.0089445254852362
 230    0.0022586400559673
 231    -0.00044088529063639
 232    0.0002370587511605
 233    0.00027794453076795
 234    -0.00096758422324262
 235    0.0002325749105994
 236     0.002055037232225
 237    -0.0036549321632442
 238    -3.635108786442e-06
 239    -0.00047177504841191
 240    -0.0003004021149302
 241    0.00058973451992068
 242    0.0016037947049225
 243    3.8669135938817e-06
 244    7.633046248373e-05
 245    0.00040308305675184
 246    -0.0024156306938477
 247    0.00085716664723902
 248    -0.00012428057546414
 249    0.0004424103088243
 250    -0.00033169677870351
 251    0.0041477039559366
 252     0.006219323193778
 253     0.035520859908041
 254    0.0058469270264957
 255    -0.018114665969826
 256    0.00025254173403912
 257    -0.00047705742176564
 258     0.023058043834805
 259    -0.007127832827742
 260     0.003215468674611
 261    -0.0011757977731885
 262    0.0009393866258597
 263    0.0014958704840841
 264    0.0012566898122772
 265     0.013864696229535
 266     0.007660508478414
 267    -0.00041855321788002
 268    -0.00032785466852662
 269    -0.0011311242737112
 270     -0.01944865558695
 271    -0.020015581732504
 272     0.001214802204233
 273    -0.0010871385645769
 274    0.0014547133144947
 275    -0.0012923082831018
 276    0.00023127272887916
 277    -0.00017288233884365
 278    0.00056112935686252
 279    0.00011260902237455
 280    0.00085067128247874
 281    0.00098147350955225
 282    0.0092056189534771
 283    0.0035831771086821
 284    -0.0012644583406578
 285    -0.0025817618068688
 286    -0.0037003366287354
 287    -0.0056572555364597
 288    0.0061872692806348
 289    -3.6987712001686e-05
 290    0.00052154138342309
 291    0.00038765225077943
 292    -0.0005792428530996
 293    -2.2198880989419e-05
 294    0.0029005829987839
 295    0.0039028034857114
 296    -0.00010732016837287
 297    0.00031551893422676
 298    -0.00065379071407697
 299    -0.00051805999205832
 300    -0.00044713280697571
 301    -0.00026233921981093
 302     0.000132196809709
 303    0.00032640145204145
 304    -0.004594095785261
 305    -0.008477095046268
 306    0.00089001583384602
 307    -0.00031875812039336
 308    0.00016841862219266
 309    -0.0042345739252411
 310    -0.0069133846022676
 311    -0.032559284737803
 312    -0.0073853327905879
 313    0.0047715810343239
 314     0.017541444335194
 315    0.0072026800950153
 316    0.0001536776135751
 317    -0.025183970724135
 318    0.0027045432120076
 319    -0.0015896176102099
 320    0.00097742379754545
 321    0.0024092340128929
 322    0.00087930338272224
 323    -0.016135198898519
 324    -0.0071071100600753
 325    -0.00018562606529658
 326    0.0012860947507162
 327    8.9151705163228e-05
 328    0.0063521769192028
 329     0.003290143836511
 330    0.0005955986667951
 331    -0.00025060030712821
 332    -2.9456846140745e-05
 333     0.015049175277407
 334     0.012058593384508
 335    -0.000957744145656
 336    -0.0010453493383167
 337    0.00040931454915989
 338    1.8718692132113e-06
 339    0.0001075120184181
 340    -0.00018750247555444
 341    -0.0028319273685511
 342     0.011797490397357
 343    -0.018040661535662
 344    0.0020783383026732
 345    -0.0091995356700979
 346     0.015014950015784
 347    0.0037080909339913
 348    -0.0021538008594942
 349    0.0010838524282177
 350     0.001167707372375
 351    0.0017937658947136
 352    -0.0035227035972747
 353    -0.0020157648154615
 354    0.00037242522588162
 355    -0.00016779302477319
 356    0.0008648458812402
 357     0.023848698052673
 358     0.011956848306061
 359    0.0012040989876086
 360    4.0938897347291e-05
 361    -0.0014283866573198
 362    -0.020534897330463
 363    -0.010626474945177
 364    -0.001669543039832
 365    0.00056140830984049
 366    -0.00018753702193888
 Sym= A
 Ene=              11
 Spin= Alpha
 Occup=    1.00000
   1    -1.424731121241e-07
   2    2.9348869503213e-07
   3    -2.2267965980268e-06
   4    -2.8441858255577e-05
   5    0.00018242182286865
   6    4.4925751541876e-07
   7    4.9021124876075e-06
   8    8.459095624353e-07
   9    -1.7439844913319e-06
  10    -1.6589344015916e-05
  11    -2.1346353501509e-06
  12    -5.663161668535e-07
  13    9.1249599338907e-05
  14    -2.2650213679508e-05
  15    -5.2082819545731e-06
  16    -2.1996635586397e-05
  17    6.095343879315e-05
  18    0.00010038966609595
  19    1.0951409049743e-05
  20    -0.00037969496002532
  21    0.00026109835755784
  22    0.00043640595821934
  23    0.00032872749511705
  24    0.00020330971416643
  25    6.9598560144487e-06
  26    -7.9027005299371e-06
  27    -1.0846170946501e-06
  28    5.041764047942e-06
  29    -2.693802198011e-06
  30    9.7943005134253e-06
  31    -4.3938661362603e-06
  32    3.8122552692133e-06
  33    -1.0830461677874e-05
  34    5.2746567997178e-05
  35    -8.9197479510871e-05
  36    -0.00022080980005254
  37    -5.8183761464378e-05
  38    -7.3696248491182e-05
  39    4.6059467031289e-05
  40    0.00018268070146187
  41    0.00023440050467603
  42    -0.00014664035140787
  43    3.1338173324152e-05
  44    -5.21656549687e-05
  45    8.4245615974638e-05
  46      -0.4301755541605
  47      0.27985808226898
  48      0.54374436407989
  49       0.4843332382774
  50      0.25820100933206
  51    -0.053434937635209
  52     0.034736382485948
  53     0.067658354559687
  54     0.060420006031966
  55     0.032067551042861
  56    0.00028159866081553
  57    -0.00023722639534147
  58    -9.0442082917833e-05
  59    0.00015886320841619
  60    -4.3398194522597e-05
  61    0.00030175871600254
  62    -0.00016794155714605
  63    -3.4993493030922e-05
  64    -8.1954273089454e-05
  65    -9.6230062167602e-05
  66    0.00060911155466241
  67    0.00047887004030968
  68    -0.00049113671184548
  69    2.0254694331082e-05
  70    -3.6689081382525e-05
  71    3.4915701455479e-05
  72    0.00068235223417541
  73    -0.00045518818263093
  74    -0.00085335830838698
  75    -0.0007623795099833
  76    -0.00041676336479128
  77    -7.3697766493887e-05
  78    0.00027436651317333
  79    -0.0014155011658877
  80    0.0003803577245518
  81    0.00052947937128977
  82    0.00042376074373187
  83    0.0010065327010138
  84    -0.0011271235858972
  85    -0.00086514085021808
  86    -2.0290458000915e-06
  87    -4.4895867146607e-05
  88    2.0567731694524e-05
  89    6.3244999737449e-05
  90    -2.3027207739758e-05
  91    -0.00010692298994874
  92    -0.00031608713244717
  93    2.1960836384715e-05
  94    -1.7710132904699e-05
  95    -9.2195059019762e-05
  96    -4.2974310764638e-05
  97    9.0121943635484e-06
  98    -0.00013011457356629
  99    7.9222767139481e-05
 100    3.5012816360253e-05
 101    1.7317100894378e-06
 102    0.00024110329314043
 103    2.0324270002236e-05
 104    -1.0798554740172e-05
 105    7.085001194813e-05
 106    6.5690427891277e-05
 107    -0.00020444193187674
 108    0.00088702441182894
 109    0.00025687011838479
 110    -0.0007019206688758
 111    0.00025682014369008
 112    -0.00051966747870567
 113    0.00085232194947557
 114    0.00098491330790307
 115    -4.9172645382362e-05
 116    5.9719353582142e-06
 117    -3.296947179908e-05
 118    2.135450137869e-06
 119    -2.4006231736287e-05
 120    0.00012342530198001
 121    0.00034629574798507
 122    -2.9077059463389e-05
 123    -9.0930288346201e-05
 124    0.00015412423573663
 125    0.00011756293701199
 126    0.0001113371112092
 127    5.5640738474216e-05
 128    6.2365863593971e-05
 129    1.7788302043278e-05
 130    3.6151142187808e-05
 131    -8.9081892417097e-05
 132    2.9393835076505e-05
 133    -4.2594248049126e-05
 134    -0.00012461535480298
 135    7.892684766462e-05
 136    -0.00026829501812067
 137     0.001476210284126
 138    0.00022669772048716
 139    7.8075662890137e-05
 140    -0.00074096417324758
 141    -0.00073865281998664
 142    0.0014072428247728
 143    0.00073660721015412
 144    2.4205913474855e-05
 145    -1.2387112270697e-05
 146    -5.9421590661488e-06
 147    7.793059817202e-05
 148    1.4465960789117e-05
 149    0.00010561453562816
 150    0.00026379374888775
 151    2.1268470523741e-05
 152    6.2517603716331e-05
 153    6.7900331659311e-05
 154    1.0557187534183e-06
 155    -0.00025167339002224
 156    -4.3951737066612e-05
 157    -1.8902354118905e-05
 158    -6.0321055824222e-05
 159    4.0270637196987e-05
 160    -3.2770297637318e-05
 161    7.3330285724658e-05
 162    -0.00013742948974383
 163    -3.3497389648841e-06
 164    -7.1351443784297e-05
 165    0.00022758715367979
 166    -0.0010622583537778
 167    -0.00076312845420394
 168    0.00012795865261761
 169    2.5444694950608e-05
 170    0.00042694157875897
 171    -0.0011436894643666
 172    -0.00099228634777754
 173    4.2582047284544e-05
 174    3.2452493337132e-06
 175    5.2430938241044e-05
 176    -1.2472345701741e-05
 177    2.676568237939e-05
 178    -4.4300250298235e-05
 179    9.1455663578432e-06
 180    1.084286283062e-05
 181    0.00011098339614721
 182    9.6064822183351e-05
 183    -0.00011256307318536
 184    -0.00023299438492243
 185    4.4498344815908e-05
 186    1.2403122525113e-05
 187    -8.0180571192446e-05
 188    -4.8823493824501e-05
 189    -0.00017347173204558
 190    -9.2397876518018e-05
 191    -5.6554627613907e-05
 192    -7.3680956226354e-06
 193    -1.4837523467597e-06
 194    -1.170395218401e-05
 195    3.8681327847766e-05
 196    -1.0454210532221e-05
 197    -5.4104503670925e-06
 198    9.4297911780958e-06
 199    2.1625555564052e-05
 200    3.5523533568658e-05
 201    -1.5355537634892e-05
 202    -2.6578297807799e-06
 203    1.5866565966705e-06
 204    3.5788141927387e-06
 205    3.4490800472286e-06
 206    1.6284342647129e-06
 207    -2.7603174825046e-05
 208    2.7398978246505e-05
 209    3.1153436360942e-06
 210    -8.155564669949e-06
 211    3.3664274285158e-06
 212    2.3569086289485e-05
 213    -5.7083408392063e-05
 214    -8.5219605875377e-06
 215    5.4890140255554e-08
 216    -2.2561138933822e-06
 217    1.7578609916819e-06
 218    -2.3279186837392e-05
 219    4.9374154054243e-06
 220    3.4372349003618e-06
 221    -1.806929249373e-06
 222    -0.032640005568748
 223    -0.088077831172743
 224    -0.064527782018389
 225      0.11830297794851
 226      0.04834048731166
 227     0.040005289575453
 228    -0.056700786679666
 229    -0.027123848701623
 230    -0.019847169457346
 231    -0.0017621874540937
 232    0.0025238249201632
 233    0.00033849161914445
 234    0.0031013798725186
 235    0.0027894136631996
 236    0.0078261150889317
 237     0.013659907273296
 238    -0.0068415402033476
 239    -0.0019961451578905
 240    -0.0017681511205758
 241     0.013383476564753
 242     0.013093152805819
 243    -0.0056891098188021
 244    -0.0025253531461269
 245    -0.00068787648890229
 246      0.01295152598432
 247     0.011505855439568
 248    -0.0051405428237887
 249    -0.0031581095217153
 250    -0.0031814971859799
 251     0.032476826851466
 252     0.087547935071266
 253     0.064369182934208
 254    -0.0022546931400038
 255    -0.083506977186776
 256      0.10469374888404
 257    -0.0016868831315361
 258     0.043644777646591
 259    -0.050003759002595
 260    -0.0022561414984084
 261    0.0001017454908836
 262    0.0044185037613084
 263    0.0012585024013152
 264    -0.00062278852357574
 265    -0.013538602509586
 266    -0.011616192733335
 267    9.3541703906506e-05
 268     0.005253260612947
 269    -0.0040559148416629
 270    -0.0071184981131768
 271    -0.013764354307118
 272    0.00046379387174416
 273    0.0040530085955946
 274    -0.0063091322627875
 275    -0.013213535306918
 276    -0.012178679978497
 277    -0.00073775035904145
 278    0.0032521151389945
 279    -0.005268724715021
 280     -0.03247498142255
 281    -0.087541368679684
 282    -0.064398925085595
 283     -0.12053789260951
 284    -0.042254513590708
 285    -0.040116225537612
 286     0.061184588192198
 287      0.01738870829359
 288     0.018714098312522
 289    -0.0016867379202633
 290    0.0025548498352316
 291    0.00047114278304845
 292    0.0028383282959684
 293    0.0029884218743857
 294     0.013508367927238
 295     0.011618008128704
 296    0.0064789806328099
 297    0.0014051097731314
 298    0.00063253879274132
 299     0.013162240961747
 300     0.012378733239296
 301    0.0053340573626473
 302    0.0015116850909826
 303    0.0028592350293714
 304    0.0072297082969193
 305     0.013732045942791
 306    0.0063246174140852
 307    0.0029332372660264
 308     0.002711201468217
 309      0.03269647699196
 310      0.08825210738707
 311      0.06458984007938
 312    0.0070882178225146
 313     0.080997985852697
 314     -0.10645869961907
 315    -0.0058652511151939
 316    -0.038352267615196
 317     0.053283889085949
 318    -0.0020668913522492
 319    -9.9354169847664e-05
 320    0.0045448642174796
 321    0.0014043178893828
 322    -0.00051411533498213
 323    -0.012958830315324
 324    -0.011247262091847
 325    -0.0007793717377833
 326    -0.0027673961720685
 327     0.006259566253719
 328     -0.01248530339166
 329    -0.013317426542381
 330    -0.00084244614819011
 331    -0.0046002163580634
 332    0.0043823515485181
 333    -0.0088481132239388
 334    -0.013513571148851
 335    0.00020241066371329
 336    -0.0048613698568842
 337    0.0052172148079874
 338    -5.2162065154689e-06
 339    -2.1237386621826e-05
 340    -1.4811150853047e-06
 341    -0.00017385950198574
 342    -0.00029894938866645
 343    0.00014586837610765
 344    0.0010969705198203
 345    0.0014068015433766
 346    -0.00095534425708179
 347    0.00061147873469009
 348    -0.00040317181175893
 349    -0.00076496095623113
 350    -0.00067450177814028
 351    -0.00036752268265978
 352    -0.0013847646565419
 353    -0.00059395714170711
 354    -0.00078010468493473
 355    0.00060052267210759
 356    7.1062654690695e-05
 357    0.0015868384420041
 358    0.00075194859745715
 359    0.00057433503870863
 360    -0.00087102270403808
 361    -7.7020363973702e-05
 362    -0.00019189436509286
 363    -8.1709818805648e-05
 364    0.00043143586107007
 365    0.00057539613643877
 366    -0.00017677460551036
 Sym= A
 Ene=              12
 Spin= Alpha
 Occup=    1.00000
   1    -0.00021075042692253
   2    0.00090694926785711
   3    -0.001217588579323
   4    -0.0026535662460107
   5    0.0051144666866606
   6    -0.0018034715493332
   7     0.002848954753333
   8    0.0021075862780829
   9    0.0052384001524273
  10     -0.00827864516957
  11    -0.0061271148685294
  12    -0.0066840780900529
  13     0.010719054581663
  14    0.0080891682958414
  15    -0.0021820777412078
  16     -0.01138040105632
  17     0.017931582660798
  18    -0.0072845769228182
  19    -0.015324571052441
  20    -0.0021636344995328
  21    -0.011657090940092
  22     0.018387368933336
  23    -0.0074310453520195
  24    -0.015689171703565
  25    -0.0017903489989417
  26    -0.00047502308239101
  27    0.00075263484390964
  28    -0.0013352945190772
  29    -0.0028261667168155
  30    0.0020252210625127
  31    0.00024974719941306
  32    1.6032777083198e-06
  33    -0.00061391602017274
  34    -0.003331510401073
  35     0.010313787723168
  36    -0.0036525994161099
  37    -0.0022100015030179
  38    0.0034957577722959
  39     0.002608242534667
  40    0.0058258201782214
  41    -0.0092244579470353
  42    -0.0069082402714989
  43    -0.0043879785995689
  44    0.0071234783800633
  45    0.0058096074402872
  46    -0.071012733338722
  47     -0.37788461877764
  48      0.59562782845032
  49      -0.2416157860163
  50     -0.50985503588723
  51    -0.0068199247799642
  52    -0.036487900045517
  53     0.057480234748009
  54    -0.023294932586028
  55    -0.049095239319223
  56    -0.0022609854853872
  57    -0.00061155547442904
  58    0.00092680101138045
  59    -0.0016919749109424
  60    -0.0035463056102047
  61    0.0025550106817537
  62     0.000334689666609
  63    -0.046389849976694
  64     -0.12637018564382
  65    -0.059202646423728
  66      0.14811061734035
  67     -0.23349521851466
  68     -0.17211942263882
  69    0.0011521506455861
  70    -0.001726100296662
  71    -0.0010804747449522
  72    -0.0018795825295837
  73    -0.0099271731762542
  74     0.015667543095683
  75    -0.0063396450569981
  76    -0.013416713848696
  77    0.0013624597961718
  78    0.0041032327317443
  79    0.0034696428504502
  80    0.0043633917978725
  81    0.0022316086787996
  82    0.0018580989278319
  83    -0.0025472939272519
  84    -0.0018475550845459
  85    -0.0018096536196336
  86    0.00015484603131923
  87    0.00023168705867376
  88    -5.7656969990946e-05
  89    -0.00021063180461636
  90    0.0003148735859609
  91    -0.00072157426442257
  92    -0.00034341445110921
  93    -0.00037441357444769
  94    -5.3465640640515e-05
  95    -0.00013275663629172
  96    -2.5497028417228e-05
  97    0.00021996396795908
  98    -0.00049636112780786
  99    -0.00015915673077804
 100    -6.3159256171173e-05
 101    -0.00025147741293776
 102    1.1368048097129e-05
 103    -0.00013315005372801
 104    -9.8081376297579e-05
 105    -0.00018769564417784
 106    0.0013383013521182
 107    0.0039724980378903
 108    0.0037100610196389
 109    -8.8533475848597e-05
 110    0.0036755974886826
 111    -0.0038027202658785
 112    -0.0001290516443145
 113    -0.002866970072074
 114    0.0022694895294328
 115    -0.00028340270497104
 116    0.00025607809027452
 117    -0.00022282495307291
 118    -7.2951743645769e-05
 119    7.6876451714535e-05
 120    -0.00054862320941279
 121    -0.00028144800646173
 122    -1.0911357683165e-05
 123    -0.00017365398084317
 124    -9.1500215615281e-05
 125    -0.000594198353389
 126    -0.0001436875212511
 127    -0.00013646424803456
 128    -0.00023942936296461
 129    0.00036603570814285
 130    -8.6604547763817e-05
 131    0.00023927446942065
 132    -9.7374705170107e-07
 133    -0.00023672176481458
 134    0.00053647165613418
 135    0.0013647992517042
 136    0.0041069703474882
 137    0.0034739432722048
 138    -0.00049979972339877
 139    -0.0027659580428567
 140    0.0044172910060376
 141    0.00042482231069752
 142    0.0012185652354491
 143    -0.0034006201889526
 144    0.00027654373781939
 145    -1.3802533446679e-05
 146    -5.0132454289327e-05
 147    0.00028286290944137
 148    0.00025586557696505
 149    -0.00072946295798027
 150    -0.00034330020564993
 151    -6.4981947042047e-05
 152    0.00026257196444521
 153    -0.00029402061134685
 154    -0.0002519940122463
 155    6.2198110144818e-06
 156    -1.908633757301e-05
 157    2.6117681165043e-05
 158    -0.00024864466452939
 159    -1.1373494491815e-05
 160    0.00025280478468364
 161    3.9416025379171e-05
 162    0.00039217271611914
 163    -0.00035052440624218
 164    0.0013421040064801
 165    0.0040131926913411
 166    0.0035734759405287
 167    -0.0049609100968067
 168    -0.0012993438019671
 169    -0.0012407816821505
 170    0.0036609139320942
 171    0.00069192470328678
 172    0.00025473052677653
 173    -6.6508225847243e-05
 174    -4.2915566313213e-05
 175    -0.00035602879624709
 176    0.00028188128937542
 177    -4.5615868608614e-05
 178    -2.9153518249144e-05
 179    0.00027865899062594
 180    0.00044592108462807
 181    0.00021340166498877
 182    0.00027399198054489
 183    -0.00066991121354159
 184    -0.00027338976238046
 185    0.00033484364339632
 186    0.00023331052888509
 187    0.00010072481304615
 188    -0.00041145746765786
 189    -8.1218505062461e-06
 190    0.00018025074047749
 191    9.251734451575e-07
 192    -0.00011390088870572
 193    -0.0029606825967648
 194    -0.0091062852767778
 195    -0.0039100113828978
 196    -0.0061928349877542
 197    0.0096905534543367
 198    0.0071148846378089
 199    0.0031529901974364
 200    -0.0049334271835397
 201    -0.0036450384596655
 202     3.54256272544e-05
 203    0.00018630349150417
 204    -0.00029638076697825
 205    0.00011952467262422
 206    0.00025402275102493
 207    0.0011403132835721
 208    0.00051569489878982
 209    0.00026530593391749
 210    -0.00045973897925415
 211    -0.00027462740489415
 212     0.001156064447985
 213    0.00053480828322794
 214    0.0003181135592256
 215    -0.0003987147194416
 216    -0.00030288716388831
 217    0.0011035009463115
 218    0.00059868374410659
 219    0.00024756090098995
 220    -0.00042087369421594
 221    -0.00034234702207968
 222     0.017313960365431
 223     0.046097489966473
 224      0.03267113287614
 225    -0.064199600006531
 226     -0.02550706733052
 227    -0.021215516314447
 228     0.030492615288017
 229     0.012524069228909
 230     0.010561579152394
 231    0.0012149343707894
 232    -0.0015100418419399
 233    -0.0014319998007209
 234    -0.0013793262734983
 235    -0.0016805044728085
 236    -0.0055048800495501
 237    -0.0080220511166419
 238    0.0036106829919922
 239    0.0010431566860877
 240    0.0017998303236048
 241    -0.0061108814122429
 242    -0.0065969616233967
 243    0.0036451557257838
 244     0.002185153744196
 245    0.0003824267301465
 246    -0.0074432757414662
 247    -0.0065069562060742
 248    0.0019539018477951
 249    0.00093909443596659
 250    0.0014352242460436
 251     0.017320059987641
 252     0.046115268926146
 253     0.032545564772174
 254    -0.0016743561322529
 255     -0.04465056671076
 256     0.057214618252145
 257    0.0010689051113516
 258     0.021721000391655
 259    -0.027126054816532
 260    -0.00098640872199316
 261    0.00028306403169554
 262    0.0025277681915645
 263    0.0016191824614624
 264    0.00058657891688223
 265    -0.0074416439976047
 266    -0.0065496046120584
 267    0.00045290463553509
 268    0.0022565520735464
 269    -0.0016160645130163
 270    -0.0056879718750906
 271    -0.0083378179458264
 272    0.00063161740869067
 273     0.002690891562737
 274    -0.0029741962870005
 275    -0.0058362678042094
 276    -0.0066073255580259
 277    -0.00095556326234183
 278    0.0022342581756901
 279    -0.0034943078676254
 280     0.017359942742804
 281     0.046220997122477
 282     0.032642081673696
 283     0.065105029759035
 284     0.023616830077836
 285     0.022210294431868
 286    -0.031350195952635
 287    -0.011293449431564
 288    -0.010159723622355
 289    0.0015495259062521
 290    -0.0011052633237985
 291    -0.00093230896401099
 292    -0.002237561518119
 293    -0.00097084795504094
 294    -0.0074911448417641
 295    -0.0065034359266161
 296    -0.0026308974002212
 297    -0.00089288630288213
 298    8.1108549665554e-06
 299    -0.0058650221501243
 300    -0.0067127823779959
 301    -0.0036971867820749
 302    -0.00056750672324428
 303    -0.0020743795239322
 304    -0.0056516735268802
 305    -0.0082841943582375
 306    -0.0036584486216809
 307    -0.0016868123569639
 308    -0.00072257628434027
 309     0.017272551820398
 310     0.046006239334332
 311     0.032460727736631
 312    0.0034377513570351
 313     0.044061977424714
 314    -0.056856647911702
 315    -0.0018327762265675
 316     -0.02053079684785
 317     0.027709405030061
 318    -0.0019277208622328
 319    0.00080144508673539
 320    0.0022419898067641
 321    0.0010236204382628
 322    0.00017802392273136
 323    -0.0076204032815692
 324    -0.0065359041292448
 325    -5.9567181607977e-05
 326    -0.00089671059699922
 327    0.0022768083657382
 328    -0.0058673651401792
 329    -0.0066319127041053
 330    -0.0011533006078912
 331    -0.0028673150297165
 332    0.0030295215172229
 333    -0.0055261775910518
 334    -0.0075713322438343
 335    0.00049478524919678
 336    -0.002250979986787
 337    0.0035506285196159
 338     -0.03515968956007
 339        -0.09242084955
 340    -0.073224016388737
 341     0.065112310061204
 342     -0.10221371770435
 343    -0.074926232676679
 344    -0.033244353976614
 345     0.051887920396024
 346     0.037604690022388
 347    -0.00053964635779754
 348    -0.0027743062547187
 349    0.0043640446283932
 350    -0.0017673393798974
 351    -0.0037424701227799
 352      0.01405408680401
 353     0.012489203780797
 354    -0.004458038435157
 355     0.004074847759181
 356    0.0035235864441978
 357     0.014083527139689
 358     0.012491736420298
 359    -0.0027528794977597
 360     0.005941840738371
 361    0.0024582321998821
 362     0.013205103852131
 363     0.012387714007403
 364    -0.0022481116512538
 365      0.00474500190864
 366    0.0047284119918291
