[Molden Format]
made by pyscf v[2.11.0]
[Atoms] (AU)
Cr   1   24     1.56143912275337    -2.46507591990239    -1.82404491365355
Cr   2   24    -1.56139565905251     2.46513072196000     1.82399011159594
O   3   8     0.00002078698737     0.00002834589187    -0.00002645616574
N   4   7     5.12832174930954    -1.10581670549011    -0.60767356069801
H   5   1     6.65216855026694    -1.66292686427314    -1.66487895135981
H   6   1     5.63710405218294    -1.59213394419468     1.18765885421890
H   7   1     5.20084187906585     0.81566059741989    -0.65509245834172
N   8   7     1.71230729763415    -0.02251608677419    -4.99594076510539
H   9   1     0.29795878723855     1.27247165241550    -4.90823668593820
H   10   1     1.50271021425414    -0.85583806455427    -6.73026148236459
H   11   1     3.34039895052705     0.99863710888315    -5.18656310846864
N   12   7     1.41057094787259    -4.90763575303059     1.34785282752440
H   13   1     1.64193389675534    -6.79355407945465     0.97314659318890
H   14   1    -0.29048681014202    -4.81040367474334     2.24006056107205
H   15   1     2.72468082571676    -4.56691435331926     2.71738081369757
N   16   7    -2.00544350380280    -3.82433513431467    -3.04041437688297
H   17   1    -2.87205678671934    -5.05516478184926    -1.83221042023780
H   18   1    -2.03637832046193    -4.76397121413665    -4.73247136936628
H   19   1    -3.24475802163669    -2.37551046050250    -3.28123540501917
N   20   7     3.37923471211299    -5.33493873459111    -3.94755661599306
H   21   1     4.17102617885350    -4.76109883042731    -5.61685374703210
H   22   1     2.26176595533881    -6.82326057413281    -4.47610923358166
H   23   1     4.85383336053810    -6.19899521806112    -3.03922195969837
N   24   7    -5.12827828560868     1.10587339727385     0.60762064836653
H   25   1    -5.15408816501799    -0.81544705836782     0.54662784797006
H   26   1    -5.69743166898356     1.68113626520945    -1.14337690194197
H   27   1    -6.63528195761783     1.56841410187914     1.73267665553083
N   28   7    -1.71226383393328     0.02257088883181     4.99588785277390
H   29   1    -1.62991523860311     0.86667375415253     6.73575491620870
H   30   1    -0.22416876152653    -1.19157625647512     4.98456461383551
H   31   1    -3.28782110056328    -1.08746368536834     5.11339858210385
N   32   7     2.00548696750367     3.82438993637228     3.04035957482536
H   33   1     2.05186651577887     4.68410571893416     4.77402266739321
H   34   1     2.83712330958063     5.12208376337235     1.87805706574587
H   35   1     3.26582090902109     2.38241174030942     3.19051154350492
N   36   7    -1.41052748417173     4.90769055508820    -1.34790762958202
H   37   1    -1.75003190025884     6.78104976168840    -0.99229329828299
H   38   1    -2.65834387984003     4.49309409198925    -2.75785496783350
H   39   1     0.32278033988471     4.89894112313146    -2.18344058692784
N   40   7    -3.37919124841212     5.33499353664873     3.94750181393545
H   41   1    -2.26357064378777     6.83195331430581     4.45515784003860
H   42   1    -4.15358022727151     4.76963661305810     5.62761006813313
H   43   1    -4.86681766873998     6.18449345978121     3.04686590187224
[GTO]
1 0
 s    6 1.00
          51528.086349  0.0017695545768669
          7737.2103487   0.013556436258096
           1760.374847   0.067162645785071
          496.87706544    0.23295905918518
          161.46520598    0.47040576982722
          55.466352268    0.35733072606876
 s    3 1.00
          107.54732999   -0.10605255446629
          12.408671897    0.62543981484169
          5.0423628826    0.44878820793655
 s    3 1.00
          8.5461640165   -0.21819012081133
          1.3900441221    0.70422525667731
         0.56066602876    0.42488555412558
 s    1 1.00
        0.071483705972                   1
 s    1 1.00
        0.028250687604                   1
 p    5 1.00
          640.48536096  0.0093555063746755
          150.69711194   0.068993338492216
          47.503755296     0.2634118959318
          16.934120165    0.51034501651775
           6.240968059    0.33195512953954
 p    3 1.00
          3.0885463206    0.32917682676976
          1.1791047769    0.55491385190365
         0.43369774432    0.23818412855984
 p    1 1.00
              0.120675                   1
 d    4 1.00
          27.559479426   0.036950140313562
          7.4687020327    0.18821519783039
          2.4345903574    0.44641244239929
         0.78244754808     0.5681617303244
 d    1 1.00
         0.21995774311                   1
 f    1 1.00
                 1.147                   1

2 0
 s    6 1.00
          51528.086349  0.0017695545768669
          7737.2103487   0.013556436258096
           1760.374847   0.067162645785071
          496.87706544    0.23295905918518
          161.46520598    0.47040576982722
          55.466352268    0.35733072606876
 s    3 1.00
          107.54732999   -0.10605255446629
          12.408671897    0.62543981484169
          5.0423628826    0.44878820793655
 s    3 1.00
          8.5461640165   -0.21819012081133
          1.3900441221    0.70422525667731
         0.56066602876    0.42488555412558
 s    1 1.00
        0.071483705972                   1
 s    1 1.00
        0.028250687604                   1
 p    5 1.00
          640.48536096  0.0093555063746755
          150.69711194   0.068993338492216
          47.503755296     0.2634118959318
          16.934120165    0.51034501651775
           6.240968059    0.33195512953954
 p    3 1.00
          3.0885463206    0.32917682676976
          1.1791047769    0.55491385190365
         0.43369774432    0.23818412855984
 p    1 1.00
              0.120675                   1
 d    4 1.00
          27.559479426   0.036950140313562
          7.4687020327    0.18821519783039
          2.4345903574    0.44641244239929
         0.78244754808     0.5681617303244
 d    1 1.00
         0.21995774311                   1
 f    1 1.00
                 1.147                   1

3 0
 s    5 1.00
          2266.1767785  -0.0053893503921743
          340.87010191   -0.04023472138896
          77.363135167   -0.18008184205526
           21.47964494   -0.46828857657651
          6.6589433124   -0.44692617160187
 s    1 1.00
         0.80975975668                   1
 s    1 1.00
         0.25530772234                   1
 p    3 1.00
          17.721504317   0.062630248763161
           3.863550544    0.33331138482352
          1.0480920883    0.74148638308122
 p    1 1.00
         0.27641544411                   1
 d    1 1.00
                   1.2                   1

4 0
 s    5 1.00
          1712.8415853  -0.0054477995804909
          257.64812677  -0.040627174632423
          58.458245853   -0.18111962250584
          16.198367905   -0.46843975563173
          5.0052600809   -0.44616846289231
 s    1 1.00
         0.58731856571                   1
 s    1 1.00
         0.18764592253                   1
 p    3 1.00
          13.571470233  -0.058848116969522
          2.9257372874   -0.32024624762471
         0.79927750754   -0.75328226520436
 p    1 1.00
         0.21954348034                   1
 d    1 1.00
                     1                   1

5 0
 s    3 1.00
             13.010701   0.033485484812989
             1.9622572    0.23472187088125
            0.44453796    0.81377028525955
 s    1 1.00
            0.12194962                   1
 p    1 1.00
                   0.8                   1

6 0
 s    3 1.00
             13.010701   0.033485484812989
             1.9622572    0.23472187088125
            0.44453796    0.81377028525955
 s    1 1.00
            0.12194962                   1
 p    1 1.00
                   0.8                   1

7 0
 s    3 1.00
             13.010701   0.033485484812989
             1.9622572    0.23472187088125
            0.44453796    0.81377028525955
 s    1 1.00
            0.12194962                   1
 p    1 1.00
                   0.8                   1

8 0
 s    5 1.00
          1712.8415853  -0.0054477995804909
          257.64812677  -0.040627174632423
          58.458245853   -0.18111962250584
          16.198367905   -0.46843975563173
          5.0052600809   -0.44616846289231
 s    1 1.00
         0.58731856571                   1
 s    1 1.00
         0.18764592253                   1
 p    3 1.00
          13.571470233  -0.058848116969522
          2.9257372874   -0.32024624762471
         0.79927750754   -0.75328226520436
 p    1 1.00
         0.21954348034                   1
 d    1 1.00
                     1                   1

9 0
 s    3 1.00
             13.010701   0.033485484812989
             1.9622572    0.23472187088125
            0.44453796    0.81377028525955
 s    1 1.00
            0.12194962                   1
 p    1 1.00
                   0.8                   1

10 0
 s    3 1.00
             13.010701   0.033485484812989
             1.9622572    0.23472187088125
            0.44453796    0.81377028525955
 s    1 1.00
            0.12194962                   1
 p    1 1.00
                   0.8                   1

11 0
 s    3 1.00
             13.010701   0.033485484812989
             1.9622572    0.23472187088125
            0.44453796    0.81377028525955
 s    1 1.00
            0.12194962                   1
 p    1 1.00
                   0.8                   1

12 0
 s    5 1.00
          1712.8415853  -0.0054477995804909
          257.64812677  -0.040627174632423
          58.458245853   -0.18111962250584
          16.198367905   -0.46843975563173
          5.0052600809   -0.44616846289231
 s    1 1.00
         0.58731856571                   1
 s    1 1.00
         0.18764592253                   1
 p    3 1.00
          13.571470233  -0.058848116969522
          2.9257372874   -0.32024624762471
         0.79927750754   -0.75328226520436
 p    1 1.00
         0.21954348034                   1
 d    1 1.00
                     1                   1

13 0
 s    3 1.00
             13.010701   0.033485484812989
             1.9622572    0.23472187088125
            0.44453796    0.81377028525955
 s    1 1.00
            0.12194962                   1
 p    1 1.00
                   0.8                   1

14 0
 s    3 1.00
             13.010701   0.033485484812989
             1.9622572    0.23472187088125
            0.44453796    0.81377028525955
 s    1 1.00
            0.12194962                   1
 p    1 1.00
                   0.8                   1

15 0
 s    3 1.00
             13.010701   0.033485484812989
             1.9622572    0.23472187088125
            0.44453796    0.81377028525955
 s    1 1.00
            0.12194962                   1
 p    1 1.00
                   0.8                   1

16 0
 s    5 1.00
          1712.8415853  -0.0054477995804909
          257.64812677  -0.040627174632423
          58.458245853   -0.18111962250584
          16.198367905   -0.46843975563173
          5.0052600809   -0.44616846289231
 s    1 1.00
         0.58731856571                   1
 s    1 1.00
         0.18764592253                   1
 p    3 1.00
          13.571470233  -0.058848116969522
          2.9257372874   -0.32024624762471
         0.79927750754   -0.75328226520436
 p    1 1.00
         0.21954348034                   1
 d    1 1.00
                     1                   1

17 0
 s    3 1.00
             13.010701   0.033485484812989
             1.9622572    0.23472187088125
            0.44453796    0.81377028525955
 s    1 1.00
            0.12194962                   1
 p    1 1.00
                   0.8                   1

18 0
 s    3 1.00
             13.010701   0.033485484812989
             1.9622572    0.23472187088125
            0.44453796    0.81377028525955
 s    1 1.00
            0.12194962                   1
 p    1 1.00
                   0.8                   1

19 0
 s    3 1.00
             13.010701   0.033485484812989
             1.9622572    0.23472187088125
            0.44453796    0.81377028525955
 s    1 1.00
            0.12194962                   1
 p    1 1.00
                   0.8                   1

20 0
 s    5 1.00
          1712.8415853  -0.0054477995804909
          257.64812677  -0.040627174632423
          58.458245853   -0.18111962250584
          16.198367905   -0.46843975563173
          5.0052600809   -0.44616846289231
 s    1 1.00
         0.58731856571                   1
 s    1 1.00
         0.18764592253                   1
 p    3 1.00
          13.571470233  -0.058848116969522
          2.9257372874   -0.32024624762471
         0.79927750754   -0.75328226520436
 p    1 1.00
         0.21954348034                   1
 d    1 1.00
                     1                   1

21 0
 s    3 1.00
             13.010701   0.033485484812989
             1.9622572    0.23472187088125
            0.44453796    0.81377028525955
 s    1 1.00
            0.12194962                   1
 p    1 1.00
                   0.8                   1

22 0
 s    3 1.00
             13.010701   0.033485484812989
             1.9622572    0.23472187088125
            0.44453796    0.81377028525955
 s    1 1.00
            0.12194962                   1
 p    1 1.00
                   0.8                   1

23 0
 s    3 1.00
             13.010701   0.033485484812989
             1.9622572    0.23472187088125
            0.44453796    0.81377028525955
 s    1 1.00
            0.12194962                   1
 p    1 1.00
                   0.8                   1

24 0
 s    5 1.00
          1712.8415853  -0.0054477995804909
          257.64812677  -0.040627174632423
          58.458245853   -0.18111962250584
          16.198367905   -0.46843975563173
          5.0052600809   -0.44616846289231
 s    1 1.00
         0.58731856571                   1
 s    1 1.00
         0.18764592253                   1
 p    3 1.00
          13.571470233  -0.058848116969522
          2.9257372874   -0.32024624762471
         0.79927750754   -0.75328226520436
 p    1 1.00
         0.21954348034                   1
 d    1 1.00
                     1                   1

25 0
 s    3 1.00
             13.010701   0.033485484812989
             1.9622572    0.23472187088125
            0.44453796    0.81377028525955
 s    1 1.00
            0.12194962                   1
 p    1 1.00
                   0.8                   1

26 0
 s    3 1.00
             13.010701   0.033485484812989
             1.9622572    0.23472187088125
            0.44453796    0.81377028525955
 s    1 1.00
            0.12194962                   1
 p    1 1.00
                   0.8                   1

27 0
 s    3 1.00
             13.010701   0.033485484812989
             1.9622572    0.23472187088125
            0.44453796    0.81377028525955
 s    1 1.00
            0.12194962                   1
 p    1 1.00
                   0.8                   1

28 0
 s    5 1.00
          1712.8415853  -0.0054477995804909
          257.64812677  -0.040627174632423
          58.458245853   -0.18111962250584
          16.198367905   -0.46843975563173
          5.0052600809   -0.44616846289231
 s    1 1.00
         0.58731856571                   1
 s    1 1.00
         0.18764592253                   1
 p    3 1.00
          13.571470233  -0.058848116969522
          2.9257372874   -0.32024624762471
         0.79927750754   -0.75328226520436
 p    1 1.00
         0.21954348034                   1
 d    1 1.00
                     1                   1

29 0
 s    3 1.00
             13.010701   0.033485484812989
             1.9622572    0.23472187088125
            0.44453796    0.81377028525955
 s    1 1.00
            0.12194962                   1
 p    1 1.00
                   0.8                   1

30 0
 s    3 1.00
             13.010701   0.033485484812989
             1.9622572    0.23472187088125
            0.44453796    0.81377028525955
 s    1 1.00
            0.12194962                   1
 p    1 1.00
                   0.8                   1

31 0
 s    3 1.00
             13.010701   0.033485484812989
             1.9622572    0.23472187088125
            0.44453796    0.81377028525955
 s    1 1.00
            0.12194962                   1
 p    1 1.00
                   0.8                   1

32 0
 s    5 1.00
          1712.8415853  -0.0054477995804909
          257.64812677  -0.040627174632423
          58.458245853   -0.18111962250584
          16.198367905   -0.46843975563173
          5.0052600809   -0.44616846289231
 s    1 1.00
         0.58731856571                   1
 s    1 1.00
         0.18764592253                   1
 p    3 1.00
          13.571470233  -0.058848116969522
          2.9257372874   -0.32024624762471
         0.79927750754   -0.75328226520436
 p    1 1.00
         0.21954348034                   1
 d    1 1.00
                     1                   1

33 0
 s    3 1.00
             13.010701   0.033485484812989
             1.9622572    0.23472187088125
            0.44453796    0.81377028525955
 s    1 1.00
            0.12194962                   1
 p    1 1.00
                   0.8                   1

34 0
 s    3 1.00
             13.010701   0.033485484812989
             1.9622572    0.23472187088125
            0.44453796    0.81377028525955
 s    1 1.00
            0.12194962                   1
 p    1 1.00
                   0.8                   1

35 0
 s    3 1.00
             13.010701   0.033485484812989
             1.9622572    0.23472187088125
            0.44453796    0.81377028525955
 s    1 1.00
            0.12194962                   1
 p    1 1.00
                   0.8                   1

36 0
 s    5 1.00
          1712.8415853  -0.0054477995804909
          257.64812677  -0.040627174632423
          58.458245853   -0.18111962250584
          16.198367905   -0.46843975563173
          5.0052600809   -0.44616846289231
 s    1 1.00
         0.58731856571                   1
 s    1 1.00
         0.18764592253                   1
 p    3 1.00
          13.571470233  -0.058848116969522
          2.9257372874   -0.32024624762471
         0.79927750754   -0.75328226520436
 p    1 1.00
         0.21954348034                   1
 d    1 1.00
                     1                   1

37 0
 s    3 1.00
             13.010701   0.033485484812989
             1.9622572    0.23472187088125
            0.44453796    0.81377028525955
 s    1 1.00
            0.12194962                   1
 p    1 1.00
                   0.8                   1

38 0
 s    3 1.00
             13.010701   0.033485484812989
             1.9622572    0.23472187088125
            0.44453796    0.81377028525955
 s    1 1.00
            0.12194962                   1
 p    1 1.00
                   0.8                   1

39 0
 s    3 1.00
             13.010701   0.033485484812989
             1.9622572    0.23472187088125
            0.44453796    0.81377028525955
 s    1 1.00
            0.12194962                   1
 p    1 1.00
                   0.8                   1

40 0
 s    5 1.00
          1712.8415853  -0.0054477995804909
          257.64812677  -0.040627174632423
          58.458245853   -0.18111962250584
          16.198367905   -0.46843975563173
          5.0052600809   -0.44616846289231
 s    1 1.00
         0.58731856571                   1
 s    1 1.00
         0.18764592253                   1
 p    3 1.00
          13.571470233  -0.058848116969522
          2.9257372874   -0.32024624762471
         0.79927750754   -0.75328226520436
 p    1 1.00
         0.21954348034                   1
 d    1 1.00
                     1                   1

41 0
 s    3 1.00
             13.010701   0.033485484812989
             1.9622572    0.23472187088125
            0.44453796    0.81377028525955
 s    1 1.00
            0.12194962                   1
 p    1 1.00
                   0.8                   1

42 0
 s    3 1.00
             13.010701   0.033485484812989
             1.9622572    0.23472187088125
            0.44453796    0.81377028525955
 s    1 1.00
            0.12194962                   1
 p    1 1.00
                   0.8                   1

43 0
 s    3 1.00
             13.010701   0.033485484812989
             1.9622572    0.23472187088125
            0.44453796    0.81377028525955
 s    1 1.00
            0.12194962                   1
 p    1 1.00
                   0.8                   1

[5d]
[7f]
[9g]

[MO]
 Sym= A
 Ene=               0
 Spin= Alpha
 Occup=    1.00000
   1    8.2800451361467e-06
   2    -1.8270684511016e-05
   3    0.0001436036945399
   4    -0.00033603276030538
   5    6.6004400587529e-05
   6    -7.9261874069796e-05
   7    -7.6139750175738e-05
   8    6.8043761331603e-05
   9    0.00023568894003015
  10    0.0002541789608235
  11    -0.00020645096307128
  12    0.00016778352590907
  13    4.8652597030696e-05
  14    0.00011679239012265
  15    -0.068533978471303
  16     0.043881966488298
  17     0.087321435347587
  18     0.076885796469495
  19     0.040451711086248
  20    -0.050551154249486
  21     0.032448721806133
  22     0.064245337523704
  23     0.056197310114756
  24     0.029768338119148
  25    0.00037608634826315
  26    -0.00032129526615666
  27    -0.00012123212944115
  28    0.00021828935852387
  29    -4.3822969359925e-05
  30    0.00041764056229952
  31    -0.00023357864267114
  32    7.8464376463042e-06
  33    -1.7193189153034e-05
  34    0.00013706261674454
  35    -0.00023824194084698
  36    -0.00019967878926287
  37    -6.170264041592e-05
  38    -9.7849550132833e-05
  39    4.8850076295499e-05
  40    0.00020016654637363
  41    0.00029133091305276
  42    -0.00016682247069949
  43    0.00011493850101115
  44    8.8055635343409e-05
  45    5.319119482242e-05
  46     0.066354324572063
  47    -0.043781422164139
  48    -0.083214517559272
  49     -0.07543880135602
  50    -0.040705237930019
  51     0.048989771300777
  52    -0.032402058193219
  53    -0.061179270411631
  54    -0.055184152814099
  55    -0.030046602961803
  56    0.00036799137670485
  57    -0.00030927710755475
  58    -0.0001170709738382
  59    0.00021566182731766
  60    -4.2550781349457e-05
  61    0.00040470115091363
  62    -0.00023021895466941
  63    0.0011680232985485
  64    0.0030694987418411
  65      0.00179446662737
  66    -7.1649570132097e-05
  67    -9.7615091123178e-05
  68    6.7849600757975e-05
  69    -0.00016677618956968
  70    -0.0002774782289486
  71    0.00026578478424769
  72    -1.4284412908135e-05
  73    -3.0914288081359e-05
  74    6.443934560349e-05
  75    -1.3439060018783e-05
  76    -3.9748556495742e-05
  77     0.043043469395679
  78      0.10968337412816
  79     0.092366043355205
  80      0.15127103824461
  81     0.061925504245333
  82     0.051654621124116
  83     -0.10427257301462
  84     -0.04791531002187
  85    -0.037818251640018
  86    -0.00016080779886888
  87    0.00013534465981858
  88    0.00036820092188892
  89    0.00015578923886387
  90    0.00012038716479656
  91    -0.018092046225622
  92    -0.011724841235403
  93    -0.0028175425156449
  94    -0.002946997710969
  95    -0.0032916633897803
  96     -0.01770282079375
  97    -0.013589070784133
  98    -0.0045587688369197
  99    -0.0021906673984122
 100    0.00067402067513168
 101    -0.012206898459845
 102    -0.013280906065137
 103    -0.0050948235784157
 104    -0.00029762550683371
 105    -0.0012619511374081
 106    -0.043251622868082
 107     -0.10987623559009
 108    -0.093994847713251
 109    -0.0025570255376716
 110     -0.10866427242618
 111      0.13503377374111
 112    -0.001140391052755
 113     0.080321123735991
 114    -0.092838186552229
 115    -0.00016443556337448
 116    0.00011253642168191
 117    0.00026443628063757
 118    0.00029041824425205
 119    0.00018915659762422
 120     0.010986592037022
 121     0.014868425500996
 122    0.0011419054154296
 123    0.0021775124266588
 124    -0.0046395993382421
 125     0.018928446967115
 126     0.011799568058575
 127    0.00036436587379432
 128    0.0047789353556501
 129    -0.001886216571167
 130      0.01835777347259
 131     0.012270429105835
 132    -0.0017902295227387
 133    0.0019582109956385
 134    -0.0043233526725813
 135    -0.043512135373046
 136     -0.11087395793272
 137    -0.093393633832182
 138    0.0098345836715683
 139      0.10435147347546
 140     -0.13803532623144
 141    -0.010247812090209
 142    -0.070443889790225
 143     0.099252912912803
 144    -0.00028718898551719
 145    0.0001820942321899
 146    0.00017129887132296
 147    0.00022444291493558
 148    0.00013453406884492
 149     0.018220379527178
 150     0.011696907162322
 151    -0.00070920143655395
 152    -0.00068478485168176
 153    0.0051910929231549
 154     0.012664075364216
 155     0.013629178686731
 156    0.0010935425435409
 157    -0.0039161244733168
 158    0.0034450110329865
 159     0.017683567819838
 160     0.013750672555701
 161    -0.0016018421263239
 162    -0.0041564669411123
 163    0.0026238503101207
 164     0.042813269335382
 165      0.10884192717082
 166     0.092757800433941
 167     -0.15435836131578
 168     -0.05387861486768
 169    -0.051134558799833
 170      0.11145038940479
 171     0.033914654161219
 172     0.033968723235589
 173    -0.00022843258934057
 174    0.00010788372340676
 175    0.00028386206121059
 176    0.00029269525426309
 177    4.4884560001044e-05
 178    -0.017614401195797
 179    -0.012466781993542
 180    0.0037655078889484
 181    0.00063638162498662
 182    0.0032925353940629
 183    -0.018674299402318
 184    -0.011763883109345
 185    0.0050812667999129
 186    0.00035026591464348
 187    -0.00080292931567907
 188    -0.011500829038295
 189     -0.01387768347716
 190    0.0038043659881933
 191     0.003010059610504
 192    0.0018753198493004
 193    0.00050270306396382
 194    0.0012356511854239
 195    0.0011861608044013
 196    0.0006318021049069
 197    -0.0016889267292827
 198    -0.00081947489462297
 199    0.00062466825237101
 200    0.0026504573493904
 201    -0.0002685443026312
 202    -0.00029323968592579
 203    0.00018708880865757
 204    0.00038024413799626
 205    0.00034308305601003
 206    0.00017709056885789
 207    -0.0017902997708934
 208    -0.00090091175504225
 209    0.00034627598071488
 210    -0.0004718293238924
 211    9.0740617607672e-05
 212    0.0012235836400986
 213    0.00059801246535767
 214    -0.0005684932651149
 215    0.00035116710649424
 216    -3.0682508061844e-05
 217    -4.0683900306863e-05
 218    -6.5818355038309e-06
 219    0.00035994916168152
 220    0.00046250147154706
 221    -0.00013438593702322
 222    -0.042282403388834
 223     -0.10774029911957
 224    -0.090706438330505
 225      0.14861445478819
 226     0.061237041701181
 227     0.050673220830282
 228     -0.10231494330468
 229    -0.047518150732409
 230    -0.037106179890087
 231    0.00014786354193267
 232    -0.00013204648929749
 233    -0.00034976932764348
 234    -0.00016497341607349
 235    -0.00011972900060231
 236     0.011670492436945
 237     0.013198072425072
 238    -0.0050206317183115
 239    -0.00036014611530112
 240     -0.00117818564082
 241     0.017793113407359
 242     0.013184855537951
 243    -0.0043802143713443
 244    -0.0023263720021636
 245    0.00068963717831124
 246     0.017741445020241
 247     0.011589538610721
 248    -0.0027852648766881
 249    -0.0027431669332555
 250    -0.0033036338278126
 251     0.041586392446036
 252       0.1057057553476
 253     0.090200459134034
 254    -0.0025405494359687
 255     -0.10421456588076
 256      0.12989038112043
 257    -0.0011175880047641
 258     0.077095957937718
 259    -0.089275910851669
 260    0.00016157347802421
 261    -0.00011076411170415
 262    -0.00024652702579308
 263    -0.00028622228299985
 264    -0.00018933757936676
 265     -0.01821466637797
 266    -0.011378815488009
 267    0.00016504774006028
 268    0.0046470639244649
 269    -0.0017955808874331
 270    -0.010827452160693
 271    -0.013905053114813
 272    0.0011581723588984
 273    0.0020944462187846
 274    -0.004434632638853
 275    -0.017410079938762
 276    -0.011858692997628
 277    -0.0015723731785958
 278    0.0017716595264679
 279    -0.0042716062236019
 280    -0.042080208219216
 281     -0.10696956779232
 282    -0.091211286495168
 283     -0.15191936728714
 284    -0.052775954480746
 285     -0.05020347445048
 286       0.1095979646625
 287     0.033165829477809
 288     0.033253869506234
 289    0.00022027162262194
 290    -0.00010748411652123
 291    -0.0002710100733421
 292    -0.00028082737597449
 293    -5.5280725688088e-05
 294     0.018400907745742
 295     0.011539722641676
 296    0.0049541650004898
 297    0.00046292445134932
 298    -0.00084780208172365
 299     0.017527901157185
 300     0.012221336296461
 301    0.0037434147630756
 302    0.00048421180110298
 303     0.003217086284194
 304     0.011098780182995
 305     0.013972633998156
 306    0.0037463714123918
 307    0.0029229043162032
 308    0.0018788455731631
 309     0.041835125448293
 310      0.10666788475626
 311     0.089654396302172
 312    0.0090622012436386
 313      0.10026325772566
 314     -0.13276742804184
 315    -0.0094604662234027
 316    -0.067600663079458
 317     0.095482576684136
 318    0.00027483172282623
 319    -0.00018984494211058
 320    -0.00015544995693999
 321    -0.00022562445273341
 322    -0.00014081847874472
 323    -0.017539288671272
 324    -0.011194358769669
 325    -0.00083016576630179
 326    -0.00065910400251619
 327    0.0050028676047997
 328    -0.016609553142144
 329    -0.013372832885999
 330    -0.0013642873361083
 331    -0.0040812743079668
 332     0.002519140520611
 333    -0.012571811467552
 334    -0.012984016166382
 335    0.0011379363459484
 336    -0.0037218394256491
 337    0.0033162972599097
 338    0.00049832857225944
 339     0.001238349011245
 340    0.0011285277991018
 341    -0.0011120452229855
 342    0.0010870023944516
 343    0.0012175787918173
 344    0.0018659250260477
 345    0.00053331424739817
 346    -0.0018049391637372
 347    0.00028526357033192
 348    -0.00018634821988573
 349    -0.00036469518910866
 350    -0.00033532705232443
 351    -0.00017472082042468
 352    -0.001572921001022
 353    -0.0007737411930048
 354    -0.00046991861082319
 355    0.00029523663091788
 356    -9.130197652176e-05
 357    0.0013560481282551
 358    0.0006833630878445
 359    0.00036269995168423
 360    -0.00056211164035285
 361    6.1453784441175e-05
 362    -0.00038627185945195
 363    -0.00021835978115553
 364    0.00036346959683297
 365    0.00039574988042212
 366    -0.00020293963624752
 Sym= A
 Ene=               1
 Spin= Alpha
 Occup=    1.00000
   1    -4.7889076762895e-06
   2    1.104922474395e-05
   3    -7.682326149218e-05
   4    0.00018646582787202
   5    0.00037887488593259
   6    8.1831406809752e-05
   7    8.6255113086131e-05
   8    -6.7140749860357e-05
   9    -0.00025424671585534
  10    -0.00027397622030907
  11    0.0002159888719395
  12    -0.00011527181302811
  13    0.00016043111639917
  14    -0.00023324552104331
  15     0.066230264386362
  16      -0.0430113266487
  17    -0.083627469354548
  18    -0.074693806323391
  19    -0.039854536757263
  20     0.047924522376897
  21    -0.031174634669621
  22    -0.060485996451269
  23    -0.053792801196862
  24    -0.028852447583161
  25    -0.00034786655716319
  26    0.00029149872081791
  27    0.00011458285741006
  28    -0.00019776938571466
  29    3.7666905449206e-05
  30    -0.00037582804515092
  31    0.00021303771820972
  32     4.97909917209e-06
  33    -1.1585847503869e-05
  34    7.9437221654855e-05
  35    -0.00014147901783775
  36    -0.00038313732678488
  37    -7.2431012596191e-05
  38    -0.0001087545175075
  39    5.3192188870261e-05
  40    0.00022738984684756
  41    0.0003407624168287
  42    -0.00017068702260907
  43    2.1981717559871e-05
  44    -7.5792877417062e-05
  45    0.0001355833021971
  46     0.068071384694874
  47    -0.044395911578051
  48    -0.085928733216003
  49    -0.076919088942661
  50    -0.041056885158008
  51     0.049322257712393
  52     -0.03219228070032
  53    -0.062115386815593
  54    -0.055421822196998
  55    -0.029793136716413
  56    0.0003544897845336
  57    -0.00029906728091082
  58    -0.00011510646441057
  59    0.00020266519215459
  60    -4.7331291092217e-05
  61    0.00039173966101709
  62    -0.00022125867573789
  63    0.00011267977940487
  64    0.00028989827134896
  65    0.00017984705460128
  66    2.6465845945602e-05
  67    -4.5587795825607e-05
  68    -3.289170143828e-05
  69    6.4965454538021e-05
  70    -8.7631268371449e-05
  71    -7.6602954351677e-05
  72    0.00055512804901242
  73    -0.00037354014225355
  74    -0.00070226206768016
  75    -0.0006190865467966
  76    -0.00034260274077361
  77    -0.042354942648947
  78     -0.10685172283493
  79    -0.094012173569431
  80     -0.14732754588988
  81    -0.059276997458615
  82    -0.049537808567187
  83      0.10434514904654
  84     0.044263374774891
  85     0.035053368738746
  86    0.00016740673351851
  87    -0.00026502355162753
  88    -0.00028251603350374
  89    -5.3029181473233e-07
  90    -0.00019297998455694
  91     0.017501045721387
  92     0.010706574799654
  93    0.0028424718699413
  94    0.0028191978769264
  95    0.0030074891180207
  96     0.017205875928398
  97     0.013231833106272
  98    0.0042105569462148
  99    0.0022928321669272
 100    -0.00057558715476181
 101     0.011839584779228
 102     0.013986436504307
 103    0.0050377258169108
 104    0.00021815887605203
 105    0.0013744536578105
 106     0.042059668490932
 107      0.10607108120039
 108     0.093178890627401
 109    0.0032007474287374
 110      0.10346287688696
 111     -0.13023940665573
 112    -9.5509221500714e-06
 113     -0.07582112946037
 114     0.091967639741522
 115    3.7464256867852e-05
 116    -0.00010296221479555
 117    -0.00036164184108621
 118    -0.00027047104945936
 119    -0.00026325125017409
 120    -0.010158693940209
 121     -0.01399872481828
 122    -0.0011886564738959
 123    -0.0022438331462281
 124    0.0048039493939897
 125    -0.018049927188809
 126    -0.011148290348128
 127    -0.00024832154744996
 128    -0.0044690357382596
 129    0.0019015649792327
 130    -0.017708766991253
 131    -0.012073950188502
 132    0.0017460547896762
 133    -0.0019756142220722
 134    0.0039198730307938
 135     0.042348552803485
 136      0.10681664283221
 137      0.09415778972209
 138    -0.0088976540324626
 139      -0.1009584231043
 140      0.13185488804155
 141    0.0082028892128381
 142     0.071370895702368
 143    -0.094346622247167
 144    0.00033992356127995
 145    -0.00020949121564906
 146    -0.00021124018218685
 147    -1.0386581257723e-05
 148    -8.8838799885794e-05
 149    -0.017422563193775
 150    -0.010679241878919
 151    0.00071773479833851
 152    0.00084114484248357
 153    -0.004880761751967
 154    -0.012116301461054
 155    -0.014189856000642
 156    -0.0011855532312337
 157    0.0037745854979938
 158     -0.00341844888882
 159    -0.017022833669165
 160    -0.013323076645011
 161    0.0016688318639027
 162     0.003745384064024
 163    -0.0025446697196587
 164    -0.042123051380829
 165     -0.10618714628635
 166    -0.093434792139409
 167      0.14932787658297
 168     0.053215176174305
 169     0.050198929309003
 170      -0.1080768211559
 171    -0.035775510724977
 172    -0.035465273105388
 173    0.0003468713120478
 174    -0.00012333467405558
 175    -0.00013107776771784
 176    -0.00031966855254321
 177    1.0945720911971e-05
 178     0.017131402039466
 179     0.012181330554966
 180    -0.0036643631105035
 181    -0.00042477278158988
 182    -0.003004126528034
 183     0.018023187140395
 184     0.010959153158069
 185    -0.0048720642663395
 186    -0.00035653467362874
 187    0.00058422660483471
 188     0.011022573320158
 189     0.013586716852562
 190    -0.0038856275098429
 191    -0.0030961592513437
 192    -0.0018563571736304
 193    -5.3644247308545e-06
 194    -6.075158657154e-06
 195    2.1283854312285e-05
 196    0.00023622062817256
 197    0.0002368618539067
 198    -0.0001899534647028
 199    -0.0011916752055902
 200    -0.0015025850740322
 201    0.00095372344630003
 202    0.00027899512053125
 203    -0.00017872382442259
 204    -0.00036094403924841
 205    -0.00033137835999506
 206    -0.00017139717781606
 207    0.0014828450457562
 208    0.00080429948709751
 209    -0.00034761376121725
 210    0.0004927396113209
 211    -6.9626396457797e-05
 212    -0.0013432889587163
 213    -0.00083802977554163
 214    0.00048618989693734
 215    -0.00031989210519275
 216    4.816165664474e-05
 217    -0.00014935116772429
 218    -0.0001751311550773
 219    -0.00034438781479694
 220    -0.00040755265384394
 221    0.00017125694484862
 222    -0.043574549857451
 223     -0.10994734381847
 224    -0.096747225835165
 225      0.15163710273105
 226     0.061384255151272
 227     0.050956172350763
 228     -0.10716630808968
 229    -0.046121953466043
 230    -0.036071346354297
 231    0.00018450612914257
 232    -0.0002672969371048
 233    -0.00031059630624324
 234    -9.1039269082722e-06
 235    -0.00018669762072722
 236     0.011775209450198
 237     0.014641972833916
 238    -0.0052663818076086
 239    -0.00028304827821813
 240    -0.0013201995997053
 241     0.018155392160747
 242     0.013559546666553
 243    -0.0042250152987506
 244    -0.0025056844979308
 245    0.0006053905904149
 246     0.017970672540943
 247     0.011210735339387
 248    -0.0029301229712502
 249    -0.0027799917059973
 250    -0.0031688994482782
 251      0.04325639792222
 252      0.10909168855425
 253     0.095805412813352
 254    -0.0033246168497088
 255     -0.10615156204301
 256      0.13397440359524
 257    0.00013273567650825
 258     0.077700930695831
 259    -0.094756944196849
 260    3.1172490254535e-05
 261    -9.4725581583225e-05
 262    -0.00037318242840428
 263    -0.00026011770257743
 264    -0.00025640933204606
 265    -0.018572078624414
 266    -0.011336931258395
 267    8.6413384231772e-05
 268    0.0046323784645996
 269    -0.0019572230987707
 270     -0.01086327759154
 271    -0.014170639731408
 272     0.001294780345745
 273    0.0023031089665364
 274    -0.0048355191433155
 275    -0.017934146205536
 276    -0.012332237698836
 277    -0.0016733343413031
 278    0.0019309642262466
 279    -0.0041497673478777
 280    -0.043357331373819
 281      -0.1093357844367
 282    -0.096117295528842
 283     -0.15395602737637
 284    -0.054639758456399
 285    -0.051597636350933
 286      0.11139390483785
 287     0.036461378972743
 288     0.036285497087919
 289    0.00036057778278415
 290    -0.00012342491077986
 291    -0.00015621872711837
 292    -0.00032708206400934
 293    1.067725730047e-05
 294     0.018591461180433
 295     0.011390890735506
 296    0.0049862111755562
 297    0.00046420678502199
 298    -0.00066953071506559
 299     0.017902711251536
 300     0.012654749538211
 301    0.0037985905277367
 302    0.00031353347294929
 303    0.0030639217015455
 304     0.011041888485852
 305     0.014215070571676
 306    0.0040315454502696
 307    0.0031700383274547
 308    0.0020004833695258
 309     0.043565390862258
 310      0.10993227589899
 311     0.096648947905816
 312    0.0087665460846156
 313      0.10377120403661
 314     -0.13556683169085
 315    -0.0079186781192324
 316    -0.073376483951273
 317      0.09700478210618
 318    0.00034658470016711
 319    -0.00020566255500599
 320    -0.00021091192060011
 321    -1.0927129992781e-05
 322    -7.2410952741657e-05
 323    -0.017964602393995
 324    -0.010831882598533
 325    -0.00085969081336293
 326    -0.00087672175501991
 327    0.0050180935826045
 328    -0.017046800714926
 329    -0.013720576427902
 330    -0.0015645505687546
 331    -0.0039518459592986
 332    0.0026220014379566
 333    -0.012908542247183
 334    -0.014338296758747
 335    0.0012990644488029
 336    -0.0037673545561523
 337    0.0035235462626326
 338    9.9891277026459e-05
 339    0.00024264341793545
 340    0.00022507825220286
 341    -0.00036827633123007
 342    -2.6530540281195e-05
 343    0.00036747523339639
 344    0.0013188058728612
 345    0.0013265590691876
 346    -0.0011795885533638
 347    0.00028725498950868
 348    -0.0001861229800832
 349    -0.00037104477975028
 350    -0.00034102567866697
 351    -0.00017526743978744
 352    -0.001394111898404
 353    -0.00075992386435161
 354    -0.00050061526963869
 355    0.00032213327126239
 356    -6.8211162460979e-05
 357    0.0015070234633252
 358    0.00092199556309518
 359    0.00035302324844115
 360    -0.00051473520542004
 361    5.6941799547931e-05
 362    -0.00022324916127408
 363    -0.00012385664014045
 364    0.00035580965750402
 365    0.00042320654960186
 366    -0.00016659562250548
 Sym= A
 Ene=               2
 Spin= Alpha
 Occup=    1.00000
   1    0.00029746393101457
   2    -0.0003592829906204
   3     0.006689182167954
   4    -0.0097482248060357
   5    -0.0023528523342233
   6    -0.00050771797129787
   7    0.00080178172300394
   8    0.00062124164845552
   9    0.00063587221726832
  10    -0.001007621227444
  11    -0.00084241482349742
  12    0.0031008736970333
  13    -0.0047674888785532
  14    -0.0030723891629874
  15    -0.0096102733336475
  16    -0.054400392770948
  17     0.084485742340329
  18    -0.035187119496111
  19    -0.073191208699366
  20    -0.0077078758964198
  21    -0.042713409785549
  22     0.066462823227827
  23    -0.027677588787565
  24    -0.057733651391391
  25    -0.00020010861441168
  26    -5.7902814968966e-05
  27    5.4158450795001e-05
  28    -0.00014866816505063
  29    -0.00028818374679492
  30    0.00022013171542016
  31    5.2317592983162e-05
  32    0.00029627115034874
  33    -0.00035571709638187
  34    0.0066731697436978
  35    -0.0097158767668167
  36    -0.0023778618439742
  37    0.00050653382543922
  38    -0.00080252228202223
  39    -0.00062148903178376
  40    -0.00063239038544126
  41     0.001008819228745
  42    0.00084327974976229
  43    -0.0031002548370839
  44    0.0048077648079971
  45    0.0030677701587796
  46    -0.010872191410895
  47    -0.053581639736455
  48     0.086082118379233
  49     -0.03372879868722
  50    -0.072430948858312
  51    -0.0086261952385508
  52    -0.042108539780876
  53     0.067641518487929
  54      -0.0266051553384
  55     -0.05716798773971
  56    0.00019398876968808
  57    6.1759823607007e-05
  58    -5.0605745334234e-05
  59    0.00014776719523355
  60    0.00028814674162624
  61    -0.00022642606597569
  62    -4.6816721996256e-05
  63      0.12428834201778
  64      0.32254369797831
  65      0.20388601276201
  66    -7.0106232532941e-06
  67    -1.0174508205455e-05
  68    -4.057050092637e-07
  69    -1.6382639958147e-05
  70    -1.1990954880259e-05
  71    1.3284141501864e-05
  72    -0.00068347981454426
  73    -0.0037174912422398
  74    0.0058841469124959
  75    -0.0023786900289731
  76    -0.0050293872227081
  77     -0.02502995565256
  78    -0.063284401650811
  79     -0.05338086596615
  80    -0.088752581710175
  81    -0.035773507016448
  82    -0.029877854580328
  83     0.061953962997365
  84     0.026204049671445
  85     0.022416419678412
  86    -1.2434175645555e-05
  87    -0.00013190761028401
  88    0.0004543634304926
  89    -0.00028522260442654
  90    -9.9134383979818e-05
  91     0.011064326867912
  92    0.0071667275004812
  93    0.0013076097755939
  94    0.0011659950012224
  95    0.0016902608052436
  96     0.009095128712603
  97    0.0066643714913287
  98    0.0029875497128396
  99    0.0020620477402787
 100    -0.00036016999068226
 101    0.0085052303845541
 102    0.0079053283391497
 103    0.0030680439363322
 104    0.00027072012376055
 105    0.0016279938905227
 106    -0.024277229333097
 107    -0.061290948771162
 108    -0.052090749269999
 109    -0.0018751242183022
 110    -0.060943956631948
 111     0.076679528884328
 112    0.0018140135615869
 113     0.043660565953815
 114    -0.053603836487079
 115    -0.00023088146621604
 116    -7.884334080753e-05
 117    0.0002486758602953
 118    -0.00028392534990542
 119    -0.00043779601671872
 120    0.0088425513887704
 121    0.0087566800529151
 122    0.00091460620017308
 123    0.0019142391749492
 124    -0.0025076138742233
 125     0.010372178941663
 126    0.0068479005587298
 127    0.00057549203906486
 128    0.0023942016542412
 129    -0.00094487814704622
 130    0.0087017459578682
 131    0.0065792263671825
 132    -0.0014583071406575
 133    0.0014396323210458
 134    -0.002805564315601
 135    -0.024271275794691
 136     -0.06133688994427
 137    -0.051799333969712
 138    0.0052050713299138
 139     0.058961048308751
 140    -0.077064544818479
 141    -0.0038749789335653
 142    -0.040333970526904
 143     0.055564459088091
 144    0.0001678389063697
 145    -0.00036256551545476
 146    0.00034397407447475
 147    -4.0656143495724e-05
 148    -0.00020533646794569
 149     0.010717505070022
 150    0.0070283270829733
 151    -6.4269558339105e-05
 152    -0.00023785543841543
 153    0.0023141844644641
 154    0.0084432721026475
 155    0.0075948181341681
 156    0.00092917485866609
 157    -0.0018516652600717
 158    0.0026880289458877
 159    0.0086626647217915
 160      0.00636842574771
 161    -0.0015146982306655
 162    -0.0025219756153369
 163    0.0020041146249075
 164    -0.025069773790642
 165    -0.063375223653295
 166    -0.053512130788326
 167     0.090676803048346
 168     0.032258565169662
 169     0.030423586206522
 170    -0.064600657368959
 171    -0.022370436992416
 172    -0.020252047560972
 173    -0.00012290562546854
 174    -0.00025897231154308
 175    0.00025534806812541
 176    7.4587347340739e-05
 177    -0.00046038870660571
 178    0.0088573686888768
 179    0.0068556670554939
 180    -0.0028278591190454
 181    -2.669057417314e-05
 182    -0.0022643018916258
 183     0.011055502042357
 184    0.0072052897692141
 185    -0.0024690189536395
 186    -0.00045602433015705
 187    0.00058115637871849
 188    0.0087986445845998
 189    0.0083526628637075
 190    -0.002810149581857
 191    -0.0019307710790248
 192    -0.0004829580709133
 193      0.05037163740465
 194      0.12619735440342
 195      0.11208035842989
 196     0.091136522383224
 197     -0.14269027681976
 198     -0.10481469912303
 199    -0.065983098270844
 200      0.10291738273034
 201     0.075421861962894
 202    1.9333802572964e-05
 203    -8.6590678852912e-05
 204    0.00018385184131337
 205    -7.2935216560479e-05
 206    -0.0001453977875964
 207    -0.020733690472906
 208    -0.012614515899939
 209    -0.0017800309956011
 210    0.0055272789866673
 211    0.00085608964150108
 212    -0.021025806179363
 213    -0.012756089405306
 214    -0.0047022585254965
 215    0.0023592872405886
 216    0.0025822912948483
 217    -0.019853925039101
 218    -0.012553851331433
 219    -0.0008183055894626
 220    0.0033626384226836
 221    0.0046985975126674
 222    -0.024190752957775
 223    -0.061113394901806
 224    -0.051728786931728
 225     0.085796373353872
 226     0.034744654750325
 227     0.028845303737609
 228    -0.059979907144966
 229    -0.025190487941635
 230    -0.021601624707943
 231    -2.1852433366048e-05
 232    -0.00013052956001387
 233    0.00046036774088291
 234    -0.00029493486133994
 235    -9.2803609210909e-05
 236    0.0083908100975045
 237    0.0078934193581004
 238    -0.0029689285686715
 239    -0.00029048814138967
 240    -0.0015358356110501
 241    0.0088413016486605
 242    0.0064315480828448
 243    -0.002848747152824
 244    -0.0020681875684688
 245    0.00036616091151415
 246     0.010553249487065
 247    0.0069009667869479
 248    -0.0013079037188478
 249    -0.0010253732083434
 250    -0.0017054986647163
 251    -0.025130242144681
 252    -0.063497893638534
 253    -0.053774340548275
 254    0.0019573442271468
 255     0.062894049851721
 256     -0.07934408540365
 257    -0.001719303682851
 258    -0.045320930513757
 259     0.055267489217474
 260    -0.00022224028742171
 261    -7.7430333013603e-05
 262    0.00025189565040942
 263    -0.000275018900449
 264    -0.00042550388825393
 265     0.010933857817011
 266    0.0072030963433798
 267    -0.00045701083357693
 268    -0.0024544931926434
 269    0.0009281961515604
 270    0.0089487801706983
 271    0.0087315800343811
 272    -0.0010174848724678
 273    -0.0020054761807004
 274    0.0025716944789823
 275    0.0089536531676718
 276    0.0068021974848435
 277    0.0014470353322151
 278    -0.0014623867614819
 279    0.0029582341351757
 280    -0.024226576230535
 281    -0.061200611612092
 282    -0.051825807875227
 283    -0.087734985100811
 284    -0.031127420384487
 285    -0.029369531646599
 286     0.062382614905708
 287     0.021781739168617
 288     0.019640393533081
 289    -0.00013022651769121
 290    -0.00025719353116197
 291    0.00025790060777668
 292    8.2680199888013e-05
 293    -0.00046881356360739
 294     0.010576022731165
 295    0.0068847338943296
 296     0.002393599732515
 297    0.00053800513894734
 298    -0.00059911878568616
 299    0.0085957240961303
 300     0.006646008071713
 301    0.0027449701183121
 302    -3.8643609439615e-05
 303    0.0021854268321691
 304     0.008649438810563
 305    0.0083128907691818
 306    0.0027193427820137
 307     0.001839811509506
 308    0.00049993093009286
 309    -0.025113219280921
 310    -0.063512785825212
 311    -0.053458416754321
 312    -0.005165180128566
 313    -0.060936033539077
 314     0.079664754112659
 315    0.0040661733787623
 316     0.041601058602794
 317    -0.057526586236108
 318    0.00016660223454671
 319    -0.00034875072869721
 320    0.00034562697120023
 321    -4.2980379663165e-05
 322    -0.00020695370161566
 323     0.011195115280051
 324    0.0072861406072551
 325    0.00019099661545125
 326    0.0002403656595504
 327    -0.0023702157608548
 328    0.0089055599701694
 329    0.0065934039979516
 330    0.0014825598799527
 331    0.0026288927684181
 332    -0.0020700207887748
 333    0.0086162264930493
 334    0.0075968517730801
 335    -0.0010004653047783
 336    0.0018951189841572
 337    -0.0027911252666254
 338     0.050365809376343
 339        0.126184116516
 340      0.11206066483831
 341    -0.090995719071502
 342       0.1428558961034
 343       0.1047149371344
 344     0.065785785986954
 345     -0.10313608913172
 346    -0.075286456627461
 347    1.5147782098378e-05
 348    -8.3792357548519e-05
 349    0.00019217876949501
 350    -6.3741528377462e-05
 351    -0.0001425484642269
 352    -0.020850052122411
 353    -0.012681698761526
 354    0.0046855913173412
 355    -0.0023714227227971
 356    -0.0026132111624826
 357    -0.020912026156237
 358    -0.012701388811946
 359    0.0017905981263072
 360    -0.0055232912337532
 361    -0.00081928814373071
 362    -0.019834666378488
 363    -0.012542241896373
 364    0.00079121182210609
 365    -0.0033967447705845
 366    -0.004681152523368
 Sym= A
 Ene=               3
 Spin= Alpha
 Occup=    1.00000
   1    -0.000640772886484
   2     0.004648408162426
   3    0.00078972488976261
   4    -0.040204427627132
   5      0.00547404548731
   6    -0.0078702521740533
   7      0.01242897408395
   8     0.009235522097652
   9     0.025035271552349
  10    -0.039552677039463
  11    -0.029417773876331
  12    0.0055447764011802
  13    -0.0081467600731523
  14    -0.0049872973299233
  15    -0.007356970666199
  16    -0.039017802711657
  17     0.061479879878779
  18    -0.024974516796386
  19    -0.052590825972955
  20    -0.0077797851445213
  21     -0.04071694370399
  22     0.064245994529524
  23    -0.026099849696544
  24    -0.055115993655122
  25     0.001736450983375
  26    0.00044691905037445
  27    -0.00076937768872255
  28     0.001293927721532
  29    0.0027736751014758
  30    -0.0019646139366593
  31    -0.00021190763434405
  32    0.0006420675823933
  33    -0.0046522426803661
  34    -0.00077214581002816
  35     0.040172614776651
  36    -0.005476309628401
  37    -0.0078662899270304
  38     0.012432199179762
  39    0.0092335328555012
  40     0.025023872470833
  41    -0.039561202842234
  42    -0.029411485332693
  43    0.0055153759812918
  44    -0.0082055758685518
  45    -0.0049756315728072
  46     0.007391419046363
  47     0.038999704321871
  48    -0.061544652459806
  49     0.024883613475677
  50      0.05256929904048
  51    0.0077936287169176
  52     0.040711907870123
  53    -0.064286624070283
  54     0.026043004789139
  55     0.055100970080807
  56    0.0017356085606869
  57    0.00044939595052454
  58    -0.00077121193915744
  59    0.0012899720890221
  60    0.0027739214301548
  61    -0.001966789049697
  62    -0.00021278455066295
  63    -4.3332376829388e-06
  64    -8.8740199908206e-06
  65    -1.570070687494e-05
  66     -0.02648993620642
  67     0.041697860884265
  68     0.030727010313061
  69    -0.053535279426689
  70      0.08446512317408
  71     0.062653631803693
  72    1.3406483453544e-06
  73    -1.2094278173686e-06
  74    -2.8643798010858e-06
  75    -2.334542669977e-06
  76    -9.3414083327419e-07
  77    -0.029352925644546
  78    -0.073860601904009
  79    -0.063093739647508
  80     -0.10700150131222
  81      -0.0413117949347
  82    -0.034635372609399
  83     0.077301650619037
  84     0.030497799426332
  85     0.025716068501491
  86    0.00024863262665516
  87    -5.6714113170095e-05
  88    0.00055648341494178
  89    -0.0007631552229946
  90    3.7656673569631e-05
  91     0.013524561115919
  92    0.0074921146662481
  93    0.0011668691933424
  94    0.0013331509207784
  95    0.0018828413740185
  96      0.01143626413322
  97    0.0074646207840068
  98    0.0033004122188348
  99    0.0023030228029686
 100    -0.00039416020739427
 101    0.0096600172649273
 102    0.0082055654010102
 103    0.0037725561325893
 104    0.00033626859292647
 105    0.0017330445419409
 106    -0.029377411345594
 107    -0.074011890175539
 108    -0.062669092501819
 109    -0.0031006195601196
 110    -0.073431562938282
 111     0.095403387520219
 112    0.0023864413925837
 113     0.053360010029335
 114    -0.068818868586735
 115    -0.00071760946650197
 116    0.00016486045441323
 117    0.00032926122496538
 118    -0.00041096779386876
 119    -0.00051488292164503
 120    0.0095854294888978
 121     0.008574041867838
 122    0.0010495284432175
 123    0.0022307533520616
 124    -0.0033354576180363
 125     0.013197571324346
 126    0.0077191514644334
 127    0.00056567849651878
 128    0.0027225995270946
 129    -0.00080732089885717
 130     0.011372886590342
 131    0.0077406440696731
 132    -0.0017150030625622
 133    0.0016328504050196
 134    -0.0030659716696369
 135    -0.029281441692368
 136    -0.073669985600105
 137    -0.062986724666948
 138    0.0055133851662739
 139     0.073948331185924
 140    -0.093738226519365
 141    -0.0041986025319589
 142    -0.053011839594142
 143      0.06859342482426
 144    0.00042106214892672
 145    -0.00050133359625454
 146    0.00066226920139762
 147    0.00031214190837562
 148    -4.7069663056336e-05
 149      0.01345227926924
 150    0.0075577320298025
 151    -0.00015212336087487
 152    -1.8186625473198e-05
 153    0.0025587719016346
 154    0.0098488870737319
 155      0.00807103340451
 156    0.0010356666572205
 157    -0.0024779702897941
 158    0.0031668837720856
 159     0.011279239293937
 160    0.0074569413640542
 161    -0.0017242034424518
 162    -0.0028605872712151
 163    0.0022716585803654
 164    -0.029475171886233
 165    -0.074251857900363
 166    -0.062947046499017
 167      0.10742189117613
 168     0.040036449596425
 169     0.037552990033345
 170    -0.077855934579753
 171    -0.028760311176038
 172    -0.026688541127646
 173    -0.00014609974669574
 174    -0.00054398793275089
 175    -3.9030586702454e-05
 176    0.0002568624273352
 177    -0.00080653119463247
 178     0.011199844693414
 179    0.0078437396810476
 180    -0.0031262916535487
 181    4.1192561961561e-05
 182    -0.0024819105179293
 183     0.013600972968808
 184    0.0076891803792283
 185    -0.002613785893015
 186    -0.00030935581656918
 187    0.00080519545588144
 188    0.0096283823468959
 189    0.0085838023322276
 190    -0.0033630741548368
 191    -0.002346193903154
 192    -0.00083265330985735
 193     0.058374559282853
 194      0.14417314371182
 195      0.14023434185401
 196      0.10418175115922
 197     -0.16314717773543
 198     -0.11987921895584
 199    -0.078546062532214
 200       0.1225049309175
 201     0.089685855572954
 202    4.4170759507113e-05
 203    1.9852254845808e-05
 204    2.350997157015e-05
 205    -3.6940204992135e-06
 206    3.6836923456326e-06
 207    -0.023771199028553
 208    -0.014976108265647
 209    -0.0019956990078846
 210    0.0061851986351452
 211    0.0009745534252366
 212    -0.024071215909481
 213    -0.015110190560817
 214    -0.0052655295571479
 215    0.0026596921276378
 216    0.0029000977995454
 217    -0.022654801856724
 218    -0.014725331163259
 219    -0.00094799859196479
 220    0.0037977192170509
 221    0.0052495400907916
 222     0.029290230749242
 223     0.073693311715544
 224     0.063000142016193
 225     -0.10673422957569
 226    -0.041461620038588
 227    -0.034467333295894
 228     0.077145259400534
 229     0.030495973591389
 230     0.025554798401781
 231    -0.00024174893574415
 232    6.0084201959573e-05
 233    -0.00055729028932243
 234    0.00077377423569719
 235    -4.2512385355859e-05
 236    -0.0096285166231918
 237    -0.0082859255121761
 238    0.0037932631753618
 239    0.00037033650884618
 240    0.0016458422471323
 241    -0.011541521026376
 242    -0.0074356003063959
 243    0.0031974771077127
 244    0.0023662556927272
 245    -0.00041179978351714
 246    -0.013341238655786
 247    -0.0075040640237846
 248    0.0012209714004241
 249     0.001235056132768
 250    0.0019657396955766
 251     0.029474996208865
 252      0.07426137487551
 253     0.062879525124515
 254    -0.0031836853331629
 255    -0.073434426253571
 256     0.095735839718542
 257    0.0024319905820885
 258     0.053430605998144
 259     -0.06892845044737
 260    0.00070739083912284
 261    -0.00016086085311321
 262    -0.0003282998276319
 263    0.00040668756102848
 264    0.0005099590664576
 265    -0.013444247662411
 266    -0.0077903378720888
 267    0.00042529122389414
 268    0.0026970304651182
 269    -0.00075222443357202
 270    -0.009622314430544
 271    -0.0085863135232148
 272    0.0011354191853458
 273    0.0022859715347579
 274    -0.003300928888625
 275    -0.011286448248138
 276    -0.0077502069364148
 277    -0.0016598972278986
 278     0.001624594479491
 279    -0.0031792211802035
 280     0.029400441922568
 281     0.074060412597738
 282     0.062768704092083
 283      0.10723019312231
 284     0.039815536940021
 285     0.037415595556657
 286    -0.077719187167473
 287    -0.028648351470774
 288    -0.026663707550724
 289    0.00014663087898223
 290    0.0005445452088297
 291    4.0853877212095e-05
 292    -0.00026142750531988
 293    0.00081564201348244
 294    -0.013453254335366
 295    -0.0076447822658542
 296    -0.0026271824463007
 297    -0.00041023178076427
 298    0.00084274031981913
 299    -0.011265855956327
 300    -0.0078136333029189
 301    -0.0030986145276283
 302    0.00011903862432595
 303    -0.0024438591199318
 304    -0.0095762314436595
 305    -0.0085386144182438
 306    -0.0033521229408648
 307    -0.0023067594081081
 308    -0.00089666871499149
 309     0.029344416138828
 310     0.073837734153593
 311     0.063092300238862
 312    0.0052337495664261
 313     0.074055305284843
 314    -0.093960268142661
 315    -0.0040703962195589
 316    -0.053051791350153
 317     0.068808834726237
 318    -0.00042596846142562
 319    0.00048940912483735
 320    -0.00065919416069094
 321    -0.00030929823087411
 322    4.9860679126307e-05
 323    -0.013588874090401
 324    -0.0075283222665033
 325    -0.00027638664992121
 326    -1.0288417291338e-05
 327     0.002521898452503
 328    -0.011175733594671
 329    -0.0074929545674627
 330    -0.0016446670676509
 331    -0.0029346240036936
 332    0.0023021670992148
 333    -0.0099423308316056
 334    -0.0080024981599039
 335    0.0011023940811482
 336    -0.0024215572795511
 337    0.0031994032596698
 338    -0.058372952043273
 339     -0.14416989545605
 340     -0.14023107452649
 341      0.10403479637418
 342     -0.16334400634439
 343     -0.11978178039905
 344    -0.078346566663433
 345      0.12273805908987
 346     0.089555107423348
 347    -4.5293422212522e-05
 348    -1.9176611699825e-05
 349    -2.5015951498978e-05
 350    3.1180284109418e-07
 351    -3.04756744132e-06
 352     0.023899058775623
 353      0.01503271132297
 354    -0.0052353639529812
 355     0.002667758433838
 356    0.0029369805563248
 357     0.023949094614497
 358     0.015079731232293
 359    -0.002014536988446
 360    0.0061934883633932
 361    0.00092963326541297
 362       0.0226364376347
 363      0.01471966771375
 364    -0.00092624781635385
 365    0.0038261480115424
 366    0.0052346694479389
 Sym= A
 Ene=               4
 Spin= Alpha
 Occup=    1.00000
   1    -2.5086721306959e-05
   2    7.2539940562727e-05
   3    -0.00034651783064999
   4    7.5549736012638e-05
   5    0.0011965959530149
   6    0.00084617348777038
   7    -0.00021392305554657
   8    0.0010074075792683
   9    -0.0027471407548863
  10    0.00069956067518099
  11    -0.003283861753866
  12     0.002436415319729
  13    -0.00061535356926107
  14    0.0027736510963816
  15    0.0074006452350487
  16     0.013505598964412
  17    0.0010980154662377
  18    0.0035175918444838
  19    -0.011024812763368
  20    0.0072089159486132
  21     0.014505042803194
  22    0.00081603911648317
  23    0.0037215969409124
  24    -0.012509335181429
  25    -5.0099106724934e-05
  26    -3.8536809342961e-05
  27    -0.00012908633270523
  28    -5.1025376398672e-06
  29    5.2223916252738e-05
  30    4.6561521411752e-05
  31    0.00010115257666731
  32    -1.9454105609296e-05
  33    5.4797245811886e-05
  34    -0.00027562683130366
  35    -2.7894773069663e-05
  36    0.0012519749411886
  37    -0.00089485652221489
  38    0.00013748238181893
  39    -0.00093339086383574
  40    0.0029010147476604
  41    -0.00046099043986301
  42    0.0030546261406722
  43    -0.0025240330429459
  44    0.00042304444252572
  45    -0.002635246965745
  46    0.0071890703322474
  47      0.01328745800155
  48    0.0011116290032044
  49    0.0034631087995482
  50    -0.010776547894333
  51    0.0070489062976586
  52     0.014193982687472
  53    0.00071232156331013
  54    0.0037124175634265
  55    -0.012337235925681
  56    4.926583814716e-05
  57    4.0888799586693e-05
  58    0.00011976960196292
  59    -5.1202645895534e-06
  60    -5.4093525445488e-05
  61    -4.8415179620462e-05
  62    -0.00010526670643172
  63    -2.8875497844349e-05
  64    9.7119141037087e-05
  65    -0.00035761256443454
  66    -5.4920863561338e-05
  67    -6.4119801862078e-05
  68    1.0456438149725e-05
  69    -0.00010144563429237
  70    -3.6883919638479e-05
  71    -9.6000329879246e-06
  72    0.00022419562397919
  73    0.00044508009217976
  74    1.0202436716286e-05
  75    0.00011558700809087
  76    -0.00036863163854595
  77    0.00029967716864796
  78    -2.0648376672975e-05
  79    0.0063328216706343
  80    0.0077100710085666
  81      0.10324742106009
  82     -0.12113578022754
  83    -0.0067891599661371
  84    -0.051709268886998
  85     0.064028120438111
  86     0.005530999267954
  87    0.0035772725385547
  88    -0.0016968398391716
  89    0.0024164362967841
  90    -0.00091209136666954
  91    -0.033819758165005
  92    -0.0069350739317537
  93    0.0034279391496816
  94    -0.0048498780893542
  95    0.0016948476433528
  96      0.11508873505767
  97     0.026685007828673
  98    -0.0052775925900766
  99    -0.00042852940104082
 100    -0.0092049012251171
 101    -0.088308023739035
 102    -0.026958085245513
 103    0.00062747239544537
 104     0.008097393202225
 105    0.0042880485716488
 106    -0.00031615295153791
 107    0.00014721355213116
 108    -0.0062638708713816
 109      0.14935530687158
 110     0.048387610121411
 111     0.049572659867207
 112    -0.075450670640575
 113    -0.026876601816149
 114    -0.028782490151624
 115    0.0032463388165165
 116    0.0018230357000259
 117    0.0021356577796458
 118    -0.0015082309628779
 119    -0.0058496228342925
 120     0.062693778350574
 121      0.01963156955461
 122    0.00052631222757816
 123    -0.0076372762110771
 124    -0.0020884931422465
 125     0.066320566077609
 126     0.014900093820582
 127    -0.0045165181370477
 128    0.0019689654775867
 129     0.006513033551626
 130      -0.1225572884698
 131    -0.029407750196038
 132    0.0081414348651631
 133    0.0070180298540943
 134    -0.0042239212499506
 135    0.0002945481367307
 136    3.9756347155705e-05
 137    0.0059359204383237
 138     -0.14487323403582
 139    -0.052204793578527
 140    -0.040889523655627
 141     0.073585680502195
 142     0.030149710915891
 143     0.021805236238639
 144    0.0027494505026691
 145    0.0066709510559949
 146    0.00052752592643744
 147    0.00056703740586925
 148    0.00063088663272616
 149    -0.032989103626092
 150    -0.0066411239960486
 151    0.0055092835684918
 152    -0.002604988871238
 153    0.00060625362014107
 154    -0.088538004111248
 155    -0.026985815354701
 156    -0.0050677430374519
 157    0.0021707926930001
 158    0.0073710462309291
 159      0.11529709108126
 160     0.026795000488327
 161    -0.0045613029057961
 162    0.00028934625911013
 163    -0.0096006025671779
 164    -0.00032319987961447
 165    0.0001315037941692
 166    -0.0067662246748833
 167    0.00081803630887691
 168      -0.1033337424927
 169      0.12789393600812
 170    0.00015867049494225
 171     0.049474799746446
 172    -0.067459362580725
 173    -4.3164610423754e-05
 174    0.0035456341984657
 175    0.0039376103781916
 176    0.00025017459719701
 177    -0.0051747338293517
 178     -0.12218277515653
 179    -0.029262723976801
 180    -0.0078244779454854
 181    -0.0067947806953625
 182    0.0047910229251541
 183     0.049994708691144
 184      0.01086035967881
 185    0.00022838271770626
 186    0.0071455955529601
 187    0.0013910956091646
 188      0.07870664637046
 189     0.024606445023466
 190    0.0070698195241437
 191    -0.004025507513468
 192    -0.0033350397332502
 193    -6.7618938377558e-05
 194    -0.00022392787323367
 195    0.00043589646642955
 196    -0.010352696166562
 197    0.0029248662177315
 198    -0.012957379888538
 199     0.003250071588415
 200    -0.0011511480065952
 201    0.0039382754278007
 202    -7.4383661604704e-05
 203    0.00041975618862316
 204    -0.00012405354385211
 205    0.00018415887314083
 206    -0.00051372774636143
 207    -0.0070137545466474
 208    -0.003107097008934
 209    0.00084402963029236
 210    0.00010112408446739
 211    -0.00048141824718536
 212    -0.0066850599173823
 213    -0.0031690500813838
 214    -8.6816874042383e-05
 215    -0.0009622980533625
 216    0.00013290683062296
 217     0.013932912020744
 218    0.0052666604006149
 219    -0.0012190754885108
 220    0.0010072841005235
 221    -0.00012234787785138
 222    0.00032893775959179
 223    -2.796999230502e-05
 224    0.0068068859699856
 225    -0.0078043834819042
 226     -0.10150898733685
 227        0.118949111645
 228    0.0071292038769577
 229     0.050790309568004
 230    -0.063449742542921
 231    0.0050222998865915
 232    0.0039565311862028
 233    -0.0022476695234086
 234     0.002031976146937
 235    -0.00091894034704675
 236    -0.081113084904016
 237    -0.025465918049455
 238    -0.00025856839744184
 239    -0.0072310284991476
 240    -0.0048355802533325
 241      0.11420058749873
 242     0.026284934330893
 243    0.0056909876869191
 244    -0.00030165761331381
 245     0.008867191092566
 246    -0.040719099633396
 247    -0.008437551160105
 248    -0.0041297593503697
 249    0.0048071887893627
 250    -0.00096890697420529
 251    -0.00022761871550445
 252    0.00040066241210266
 253    -0.0063694278411792
 254      -0.1466423893052
 255    -0.047304510193743
 256    -0.048227313947441
 257     0.073326852684423
 258     0.026151790402069
 259     0.027735181649116
 260    0.0028896626303529
 261    0.0013889282348881
 262    0.0016982285886851
 263    -0.00084713215211552
 264    -0.0062341550210413
 265     0.057189811898543
 266     0.012666157650834
 267    0.0050466196784267
 268    -0.0015555301249689
 269    -0.0054459581169658
 270     0.069673876959093
 271     0.021947825386006
 272    -0.0017242215371127
 273    0.0078711984526209
 274    0.0016723699460074
 275     -0.12038153244356
 276    -0.029159787595467
 277    -0.0075681152347824
 278    -0.0076256476781359
 279    0.0035264855905185
 280    -0.00038690303774549
 281    -2.2239729427143e-05
 282    -0.0068172659407515
 283    -0.0010838684661438
 284      0.10117748893876
 285       -0.125332028735
 286    1.9105150201235e-05
 287    -0.048582242743171
 288     0.066641381142483
 289    0.00043169081113499
 290    0.0032051266935976
 291    0.0041584778075163
 292    0.0005646176257687
 293    -0.0049781579410705
 294     0.054576143066989
 295     0.011949864026629
 296    -0.00030450751421914
 297    -0.0070750767856653
 298    -0.0021825944146733
 299     -0.12001799404071
 300    -0.028525234456844
 301    0.0074241320297044
 302    0.0072189685696397
 303    -0.0043293150396251
 304     0.072078693020424
 305     0.022523530861015
 306    -0.0065482928534255
 307    0.0033687147277216
 308    0.0038470395840976
 309    0.00030155546402859
 310    0.00014071958751875
 311    0.0054211343040507
 312      0.14188277008891
 313     0.050756032372762
 314     0.039977009750037
 315    -0.071875409736693
 316    -0.028769084432871
 317    -0.021068015767292
 318    0.0028881763212426
 319    0.0064250318985849
 320    0.00094774413356763
 321    -0.00012862979074674
 322    0.00055471686779093
 323    -0.024952465583976
 324    -0.0048932849689861
 325    -0.0054373692883764
 326    0.0015751155392145
 327    -0.00077814783992266
 328      0.11121986601663
 329     0.026159466784088
 330    0.0038383468793903
 331    0.00025209700941152
 332    0.0095441628867413
 333    -0.091613054820523
 334    -0.027590361175556
 335    0.0057117103357526
 336    -0.0015293974133161
 337    -0.0071927688083551
 338    -8.9439170457832e-05
 339    -0.00029038626944967
 340    0.00043802553676493
 341     0.010610789875632
 342    -0.0026806215842543
 343     0.012733797057911
 344    -0.0032644566197941
 345    0.0011943947553316
 346    -0.0039732723928969
 347    -7.7939893603728e-05
 348    0.00041585037270883
 349    -0.00012308205216709
 350    0.00019062557760981
 351    -0.00051081560367923
 352    -0.0068550015853173
 353    -0.003249950963574
 354    8.2841451714192e-05
 355    0.00097932230816714
 356    -0.00011785653954885
 357    -0.0067696333956966
 358    -0.0029564344916162
 359    -0.00083179300052386
 360    -0.00011386236478237
 361    0.00045581509516868
 362      0.01387012444315
 363    0.0052022628438877
 364    0.0012089433615346
 365    -0.00099703360929984
 366    0.00012699713672296
 Sym= A
 Ene=               5
 Spin= Alpha
 Occup=    1.00000
   1    3.4325568029576e-05
   2    -9.8114813398957e-05
   3    0.00047570717288404
   4    -0.00073282806429359
   5    -0.0015016549430937
   6    -0.00080381656665875
   7    0.00018513852473191
   8    -0.00097146009763105
   9    0.0025702235542632
  10    -0.00059509832618905
  11    0.0031134741382565
  12    -0.0025948536218131
  13    0.00051660905837205
  14    -0.0031416782529543
  15    -0.007942278473988
  16    -0.013346488283245
  17    -0.0014574398113282
  18    -0.0033870765625992
  19       0.0105197888709
  20    -0.0084310180004411
  21     -0.01371523410625
  22    -0.0019176741312792
  23    -0.0031500862255415
  24      0.01075838521756
  25    6.202028955046e-05
  26    5.1600623674544e-05
  27    0.00013092473697787
  28    -6.1743136750951e-06
  29    -4.5680116818687e-05
  30    -2.7519979694475e-05
  31    -7.4526709368904e-05
  32    -3.0156133287446e-05
  33    8.5364967242893e-05
  34    -0.00042335464679922
  35    0.00062014332109772
  36    0.0016074172221116
  37    -0.00087982792932987
  38    0.00011949541189869
  39    -0.00094612570468564
  40    0.0028195226732451
  41    -0.00038560084657709
  42    0.0030402852188733
  43    -0.0028113622938457
  44    0.00037623716535281
  45    -0.0031097864349334
  46    0.0080267575779293
  47      0.01361148568504
  48    0.0014958085771397
  49    0.0035474651871367
  50    -0.010735701089878
  51    0.0085634476222157
  52       0.0139201787985
  53    0.0018686649152999
  54    0.0033411409399145
  55    -0.011080906905643
  56    6.4822719234325e-05
  57    5.5239136417708e-05
  58    0.00012504172016712
  59    -1.6713199787787e-05
  60    -5.0998926177766e-05
  61    -2.9761384735791e-05
  62    -8.3172349491475e-05
  63    -2.7792006103659e-05
  64    -7.6626804055789e-05
  65    -1.7709435499535e-05
  66    -0.0011266044706518
  67    0.00033906049550222
  68    -0.001681024362442
  69    0.0010106233521583
  70    -0.0002391628629709
  71    0.00057524315465731
  72    3.4598931602133e-06
  73    4.3804614837786e-06
  74    -2.9561499733964e-06
  75    1.8923252929297e-06
  76    -4.1721771001905e-06
  77    -0.00058917290882825
  78    -0.001622139998273
  79    -0.00072534020990715
  80    -0.0092891819673333
  81    -0.097662069291968
  82       0.1233224005573
  83    0.0069494378126911
  84     0.052705131280725
  85    -0.065434628498732
  86    -0.0055434335452091
  87    -0.003720592552044
  88     0.001762317069586
  89    -0.0023818040414589
  90    0.0008300931175613
  91     0.037042831518993
  92    0.0094467868317797
  93    -0.0038285918444643
  94    0.0046233336495419
  95    -0.0015097303989118
  96     -0.11554867550781
  97    -0.025547779677142
  98    0.0052425951270489
  99    0.00018065520193226
 100     0.009127859532079
 101     0.082956508519003
 102     0.016543185842971
 103    -0.00037624995836817
 104    -0.0070298832174826
 105    -0.0042783240056579
 106    0.00048281617159578
 107    0.0012312050163394
 108    0.00098297942598138
 109     -0.14512695043912
 110    -0.052354328940524
 111    -0.051331599343751
 112     0.075856029561537
 113     0.026614475006206
 114     0.028987554090898
 115    -0.0032914153999566
 116    -0.0018133713651337
 117    -0.0022283405981655
 118    0.0015131506327517
 119    0.0057180748978559
 120    -0.056722877108869
 121    -0.011655112191882
 122    -0.00019601034281841
 123    0.0068318386589413
 124    0.0020661093248718
 125    -0.068572795407101
 126    -0.016858342467313
 127    0.0041897723203978
 128    -0.0018266502442062
 129    -0.0068314750038691
 130      0.12164804203785
 131     0.029146468341843
 132    -0.008240633850868
 133    -0.0067201566486057
 134    0.0043164054057053
 135    -0.00061574903525649
 136    -0.0017175762006351
 137    -0.00057828015262157
 138      0.14052288064939
 139     0.055382366668042
 140     0.044496357463856
 141    -0.074905365016328
 142    -0.031071574575547
 143    -0.022354447002741
 144    -0.002833402604015
 145    -0.0067024429827111
 146    -0.00043095244890547
 147    -0.00070078306470423
 148    -0.00068016250765387
 149     0.036406879632653
 150    0.0091588862490728
 151    -0.0052850212560046
 152    0.0030353825171101
 153    -0.00075202989514979
 154     0.083044940052068
 155     0.016587514159787
 156    0.0041537727793121
 157    -0.0022805195139425
 158    -0.0067468972016326
 159      -0.1157403407283
 160    -0.025588801874751
 161    0.0047389285955347
 162    -0.00031810728257194
 163    0.0094049808761715
 164    0.00059173026919911
 165    0.0015447443922137
 166    0.0008538657757466
 167    0.0026725886320463
 168      0.09818844537406
 169     -0.12917454301126
 170    0.00036188909400355
 171    -0.050087600900274
 172     0.068225924115635
 173    -6.2981655781966e-05
 174    -0.0034745981503311
 175    -0.0040113505721483
 176    -0.0002050379092835
 177      0.00515026074019
 178      0.12181138274716
 179     0.029082729894415
 180    0.0076059949593089
 181    0.0070075044644295
 182    -0.0047102804385544
 183    -0.052783928097345
 184    -0.013180011622268
 185    -0.00055122333068519
 186    -0.0070644652813724
 187    -0.0017839093684333
 188    -0.072679043573006
 189    -0.015091142236391
 190    -0.0062495315392635
 191    0.0033914858586945
 192    0.0034029754698351
 193    1.3925597382096e-05
 194    7.9971934545437e-05
 195    -0.00044737273190475
 196    0.0068280919268634
 197    -0.0015618786241082
 198    0.0084816915676937
 199    -0.0014972409558755
 200    0.00043570622397696
 201    -0.0017416583543674
 202    -1.562817795531e-05
 203    -0.00029366954337819
 204    5.7766860616135e-05
 205    -0.00011969112417778
 206    0.00033235902460201
 207    0.0045984035723438
 208    0.0026771512279252
 209    -0.00056027470313094
 210    -7.2463869609752e-05
 211    0.00036369716489947
 212    0.0047598826682183
 213    0.0028980209406825
 214    8.6913010271666e-05
 215    0.00069721276545206
 216    -3.7502499226171e-05
 217    -0.0094841103228882
 218    -0.0045157099431699
 219    0.00089305208446975
 220    -0.00077041540357218
 221     3.88098674165e-05
 222    0.00062365931752104
 223    0.0016792308702486
 224    0.0010403208556022
 225    -0.0095197135655071
 226     -0.10029610728327
 227      0.12554548958113
 228    0.0073917347860168
 229     0.054140878644545
 230     -0.06679250780567
 231    0.0052073978536889
 232      0.00422976993705
 233    -0.0023876484758733
 234    0.0021001407571122
 235    -0.00088934745188567
 236    -0.079065011057994
 237    -0.015823998332963
 238    -7.0368941186507e-05
 239    -0.0064564132217526
 240    -0.0048867299025328
 241      0.11893468061822
 242     0.026291800810795
 243    0.0059021369740256
 244    -0.00057612360416312
 245    0.0091024199310344
 246    -0.045055557618742
 247    -0.011235425279305
 248    -0.0046502658581556
 249    0.0047332202337693
 250    -0.00083767009554244
 251    -0.0004547320611969
 252    -0.0011540208425908
 253    -0.00083622930773502
 254     -0.14802318720582
 255    -0.053524965038684
 256    -0.052058269798189
 257     0.077007580323828
 258      0.02710138686652
 259     0.029227728396668
 260    0.0030626538551173
 261    0.0014312226351199
 262    0.0018845670500532
 263    -0.00090779097275546
 264    -0.0063880039684915
 265      0.06216555030833
 266     0.015354483090365
 267    0.0049196603869634
 268    -0.0014907862397216
 269    -0.006041312327564
 270     0.066187536261722
 271     0.013731322037253
 272    -0.0012450954137663
 273    0.0073626424623027
 274    0.0017887457750628
 275     -0.12457379547712
 276    -0.029906642681824
 277    -0.0080134994239185
 278    -0.0076308375505617
 279    0.0037508543259143
 280    -0.00062593716373449
 281    -0.0015988195313327
 282    -0.0012833592433711
 283    0.0020029763643121
 284      0.10055066247441
 285      -0.1313721693272
 286    0.00076483309942594
 287    -0.051282145754017
 288     0.069654500171446
 289    0.00054461925428842
 290    0.0032548565324537
 291    0.0043619732587333
 292    0.00054711844342053
 293    -0.0051376424848798
 294     0.059061647445645
 295     0.014594023547475
 296    -0.00063066610724999
 297    -0.0072479249314835
 298    -0.0026191498399619
 299     -0.12426314671833
 300    -0.029631197160075
 301    0.0075087974849634
 302    0.0077088708040604
 303    -0.0043968368025725
 304      0.06922042644282
 305     0.014566071409305
 306    -0.0060496138547333
 307    0.0029906542741599
 308    0.0039644374006775
 309    0.00062614399226752
 310    0.0017220614790304
 311    0.00062930303826868
 312      0.14306776642633
 313     0.056082754623982
 314     0.045393917521412
 315    -0.076117269513865
 316     -0.03120326895188
 317     -0.02293524535213
 318    0.0031111600577025
 319    0.0067375117709067
 320    0.00089746769101159
 321    2.0250519883063e-05
 322    0.00065332850529208
 323    -0.029678718543944
 324    -0.0076217899990236
 325    -0.0054629608322081
 326    0.0020968944745325
 327    -0.00094827973297112
 328        0.116315179296
 329     0.025693886800507
 330    0.0041483970220408
 331    0.00028021390409866
 332    0.0097453466334574
 333    -0.089832244259441
 334    -0.018290435176696
 335    0.0049925223104248
 336    -0.0017989175691694
 337    -0.0069180910283469
 338    -3.6926489115754e-05
 339    -0.00014838897303676
 340    0.00045586844293236
 341    0.0078664363707651
 342    -0.0011720022789778
 343    0.0087515434984839
 344    -0.0018582399363929
 345    0.00039152726351783
 346    -0.0019125758596957
 347    2.0165419362763e-05
 348    0.00030103153542362
 349    -7.4748353851824e-05
 350    0.00013693451667502
 351    -0.00036255804201846
 352    -0.0055749149405816
 353    -0.0031683981775274
 354    9.9048596070598e-05
 355    0.00078323807372865
 356    -9.6400898164852e-06
 357    -0.0043889562462946
 358    -0.002632370222272
 359    -0.0005818767490876
 360    -9.5350907587375e-05
 361    0.00032906800209812
 362     0.010107963125528
 363    0.0046890375688611
 364    0.00092852234282428
 365    -0.00082260716320181
 366    5.819894315502e-05
 Sym= A
 Ene=               6
 Spin= Alpha
 Occup=    1.00000
   1    -7.595133370057e-05
   2    0.00021358716914586
   3    -0.001000570339069
   4    0.0027016662062498
   5    -0.0030441409157531
   6    0.0012441910745369
   7    -0.00043658003909858
   8    0.0013941612786574
   9    -0.0020825597930608
  10    0.00086623802551338
  11    -0.0019545296845308
  12    -0.011256972694664
  13    0.0023868081040641
  14    -0.016429505439713
  15     0.012941536483214
  16    -6.706221780409e-05
  17    0.0082556154835049
  18    -0.0025095514014678
  19    0.0086744023404827
  20     0.013310627719124
  21    8.2928640376721e-05
  22    0.0082594715274393
  23    -0.0025368042015666
  24    0.0092188193933821
  25    -0.00010466279187807
  26    0.00046552982487074
  27    -0.00026226356894348
  28    0.00036599137510033
  29    -0.00027174303472242
  30    8.7225437487394e-05
  31    -9.7240536549564e-05
  32    -7.4606403257692e-05
  33    0.00020929151629009
  34    -0.00098362336524873
  35    0.0027357810938205
  36    -0.0031908902839734
  37    -0.0012541405844256
  38    0.00049870673609864
  39    -0.0014568728529783
  40    0.0020855426179996
  41    -0.0010685578435547
  42    0.0021386935064402
  43     0.011576021178755
  44     -0.00210364100553
  45     0.016455806536073
  46     0.012992685443333
  47    -1.0617383366345e-05
  48    0.0082924401611751
  49    -0.0024962362477461
  50    0.0087008710327369
  51     0.013401691757244
  52    0.00011355668683486
  53    0.0083253809174244
  54    -0.0024969033647483
  55    0.0092757747295521
  56    9.2184440282213e-05
  57    -0.00047198669588473
  58    0.00027289439962009
  59    -0.00035708519455163
  60    0.00028244337551498
  61    -7.9986962220023e-05
  62    0.00010738239262087
  63    0.00061416997483384
  64    0.0012246759481278
  65    0.0025584044166026
  66    0.00021276537920905
  67    0.00015696664243571
  68    -6.1767185462301e-05
  69    3.7341832736027e-05
  70    1.5920329036392e-05
  71    7.0027165888389e-05
  72    -8.9433661406919e-05
  73    -9.7631895431083e-05
  74    6.7924800593755e-05
  75    -2.9054512087042e-05
  76    -3.5930108316486e-05
  77    -0.0021034426841026
  78    -0.0044941977941325
  79    -0.0031525387058274
  80     0.045856436558943
  81    -0.090403447763969
  82     -0.08216182907895
  83    -0.021590374516425
  84     0.048927193381812
  85     0.045816443106956
  86    0.00043458841536244
  87    0.0036267883989425
  88    -0.0010946927056673
  89    -0.0044078694766269
  90     0.001868773728537
  91     -0.09136415451057
  92    -0.019170522326587
  93    0.0080225876415564
  94    0.00026267126613697
  95    -0.0035999984980197
  96     0.034046262497847
  97    0.0076224122906756
  98    -0.003138070392287
  99    0.0042035776067963
 100    -0.00088004681348537
 101     0.069432159145328
 102     0.012429811429777
 103    -0.0017370190239751
 104    -0.0059474471152275
 105    0.0027159797295097
 106    0.0018897147920693
 107    0.0043216534480025
 108    0.0011850472088538
 109    -0.052869068447404
 110      0.11058414047078
 111     0.063717580878657
 112     0.031303947233181
 113    -0.060238687090727
 114    -0.027864725655908
 115    0.0047959025618606
 116    0.00021711273448895
 117    0.0021373057692772
 118    -0.00030239991523188
 119    0.0037225016052376
 120    -0.094193970462129
 121    -0.015606017434003
 122    -0.0069697344669991
 123     0.004280697651254
 124    -0.0015614911361664
 125     0.085857745096822
 126     0.020864549851084
 127    0.0029167162038934
 128    0.00038939307676069
 129    0.0083659613921865
 130    -0.0054494023385691
 131    -0.0018110748274692
 132     0.002536475547329
 133    -0.0032294758229282
 134    -0.0026071701178291
 135    -0.0022061028909036
 136    -0.0047372814556729
 137    -0.0035041721985594
 138     0.047970926980519
 139    -0.086213673890993
 140    -0.082987656034606
 141    -0.024366751363946
 142     0.044327939757427
 143     0.047532237419899
 144    0.0023682571877561
 145    -0.0007507023550735
 146    -0.00043660497100173
 147    0.0053822061454734
 148    0.0010071532642344
 149    -0.090314421225894
 150    -0.019090400248978
 151    -0.00070656193580228
 152    -0.0086359354027778
 153    0.00093697313255356
 154     0.068396667246199
 155      0.01250705811811
 156    0.0061565151016676
 157    0.0022041814855139
 158    -0.0014794352367974
 159     0.033736332146949
 160    0.0074297088950364
 161    -0.004494954455848
 162    0.0027522482838844
 163    -9.7470266108292e-05
 164    0.0018560439228887
 165    0.0041568918198308
 166    0.0013054871839023
 167    -0.076661907679447
 168     0.090010943175344
 169     0.074749207663204
 170     0.044582793269091
 171    -0.046807299962696
 172      -0.0349127577789
 173    0.0040430751876394
 174    0.00015888862825064
 175    0.0038599601302892
 176    -0.00088618939694216
 177    0.0032457365831775
 178    -0.018749537186289
 179    -0.003651678008054
 180    0.0013009934079326
 181    -0.0048760439069679
 182    -0.0011779930351403
 183     0.093177759259228
 184     0.022641260158939
 185    0.0036616215128587
 186    0.0030551330061681
 187    0.0080911433921528
 188    -0.087857879611379
 189    -0.015845292295079
 190    -0.0046602731485063
 191    0.0052435128593824
 192    -0.0038999908258993
 193    0.00012834476238648
 194    0.00072099771670939
 195    -0.00084733541172211
 196      0.11451863238012
 197    -0.036121909100771
 198      0.14466793158784
 199    -0.063127331622023
 200     0.019738413925151
 201    -0.079341356578983
 202    0.0024222823854876
 203    -0.0042616545816443
 204     0.002117047241121
 205    -0.0022421588882152
 206    0.0060179312040139
 207     0.073295377995859
 208     0.016414974501916
 209    -0.0080837352212937
 210    -0.00091111077478161
 211    0.0034944160010614
 212     0.064495434921662
 213     0.014206549541534
 214    0.00036637383289336
 215    0.0080397484140255
 216    -0.0023893832163601
 217     -0.13943801201664
 218    -0.030406713344369
 219      0.01044545601404
 220    -0.0077452449375103
 221    0.0029278746245012
 222    -0.0022737904486306
 223    -0.0048819932304131
 224    -0.003653578342382
 225    -0.045526146263746
 226     0.091370785261572
 227     0.082083974311709
 228      0.02133003040289
 229    -0.049608479351857
 230    -0.046288407408586
 231    -0.00013130105051181
 232    0.0036636936453809
 233    -0.00068438192781651
 234    -0.0046231584202862
 235    0.0015070763721654
 236       0.0747519653782
 237     0.013246779804731
 238    0.0014687183904934
 239    0.0065689726305286
 240    -0.0021505434752078
 241     0.027316105998422
 242    0.0063400862535551
 243    0.0030096099071595
 244    -0.0041888921346686
 245    -1.2258662218285e-05
 246    -0.089595197654462
 247    -0.018542150983664
 248    -0.0076860974155744
 249    -0.0008997586733052
 250    0.0039039318472421
 251    0.0018539541148876
 252     0.004189290290698
 253    0.0012320434312879
 254     0.053622450855698
 255     -0.11021360931467
 256    -0.063596909120133
 257    -0.031079215979299
 258     0.059831536247885
 259     0.027875605230283
 260    0.0049726852102494
 261    -0.0002400409067424
 262    0.0024542947497748
 263    -0.000762139753217
 264    0.0032002679430293
 265     0.089188176392392
 266     0.021705636135877
 267    -0.0022436114740685
 268    -0.00059526860780103
 269    -0.0087941001574941
 270    -0.090559567440119
 271    -0.015675028483904
 272    0.0069978323355081
 273    -0.0035462597160376
 274    0.0020866172745388
 275    -0.012169778313446
 276    -0.0026955479908618
 277    -0.0032283532948913
 278    0.0026963151734246
 279    0.0026217640918048
 280    0.0020640471361125
 281    0.0046888922918667
 282     0.001639858548992
 283      0.07784574437489
 284    -0.089704788704705
 285    -0.076416672428174
 286    -0.045482431847348
 287     0.047018304797306
 288     0.035409111934564
 289    0.0043450592661813
 290    0.00027881781591414
 291    0.0033847858567953
 292    -0.00081730199094307
 293    0.0035045535866528
 294      0.09220602726002
 295     0.022450869487787
 296    -0.0037698830208711
 297    -0.0025391049018307
 298    -0.0081967730967105
 299    -0.014845954680245
 300    -0.0033252520446925
 301    -0.0015811290264963
 302    0.0046414587825489
 303     0.001591462967004
 304    -0.091212992848323
 305     -0.01605757873883
 306    0.0049658536570343
 307    -0.005554617600088
 308    0.0034761028663297
 309    -0.0021126786414219
 310    -0.0045236981985438
 311    -0.0032225406466252
 312    -0.046914436126031
 313     0.087407502812891
 314     0.083723053145134
 315     0.023840080299724
 316    -0.044783159758088
 317    -0.047641964756924
 318    0.0025125939380654
 319    -0.00028485337692704
 320    -0.00034106902236565
 321    0.0052909496524155
 322     0.001607641065777
 323     -0.09245212740146
 324    -0.019756921161071
 325    -2.9657112704047e-05
 326    0.0088293012684265
 327    -0.0010726412371793
 328     0.040728447426468
 329    0.0087708809188361
 330     0.004880475643002
 331    -0.0024194216755412
 332    0.00083195604779149
 333     0.063365036307592
 334     0.011738653254476
 335    -0.0057910271946901
 336    -0.0027050747822306
 337    0.00092329918215501
 338    0.00010253482881433
 339    0.0006474633865709
 340    -0.00086600063133028
 341     -0.11581307380002
 342     0.035399820150006
 343     -0.14488932404216
 344     0.063625529473735
 345    -0.019576376953883
 346     0.079595074123104
 347    0.0025140311213958
 348    -0.0043120628083083
 349    0.0020336487605945
 350    -0.0023405462977843
 351     0.005987165529476
 352     0.064082786377579
 353     0.014268354940196
 354    -0.00032447591462661
 355    -0.0080102710754255
 356    0.0024779837617815
 357     0.074247141840492
 358     0.016466819961598
 359    0.0081176103866464
 360    0.00089206237490822
 361    -0.0036060900231331
 362     -0.14002840583554
 363    -0.030494387259178
 364    -0.010579697908735
 365     0.007676180241557
 366    -0.0028858035236604
 Sym= A
 Ene=               7
 Spin= Alpha
 Occup=    1.00000
   1    -1.0003362398593e-05
   2    3.0847911482741e-05
   3    -0.00012286548584831
   4    0.00033305394627415
   5    -0.00054753389382312
   6    -0.0012762841635288
   7    -0.0012238202011794
   8    0.00070008033338669
   9    0.0019787545054433
  10    0.0017446308463247
  11    -0.0010912432232559
  12     0.012891004981041
  13     0.013592792845471
  14    -0.0070052978083419
  15    0.0057878814144365
  16    -0.0089369891547452
  17    -0.0017887464700443
  18     0.013890542808963
  19    -0.0029224388772547
  20    0.0058435461326477
  21    -0.0091063309203761
  22    -0.0018459064683803
  23     0.014104782990539
  24    -0.0030049764494586
  25    -0.00027317682071941
  26    0.00012476504877369
  27    8.3514099460253e-05
  28    -5.4643102952238e-05
  29    0.00038908165966477
  30    0.00034636962303027
  31    -0.0003631903373979
  32    -1.1341083276054e-05
  33    3.1356137225828e-05
  34    -0.0001510934624531
  35    0.00052607741002842
  36    -0.00085929072179712
  37    0.0011815852642411
  38    0.0012505937980202
  39    -0.00067800901673832
  40    -0.0016808669401253
  41    -0.0018573505618524
  42    0.0010386833776117
  43    -0.013077843515272
  44     -0.01317496372082
  45    0.0068604749265551
  46    0.0057143841572261
  47    -0.0089443561032481
  48    -0.0017907979275873
  49     0.013853250333837
  50    -0.0029003259875169
  51    0.0058944495321703
  52    -0.0090301252235011
  53    -0.0018447457576304
  54     0.014032717039644
  55    -0.0028480295925347
  56    0.00026704243811536
  57    -0.0001209193876846
  58    -7.0730401194981e-05
  59    6.2839357359768e-05
  60    -0.00039639778255051
  61    -0.00035063580701869
  62     0.000348428752508
  63    0.0003438409147242
  64    0.00092099962422881
  65    0.00039908524074445
  66    -9.6299249383988e-05
  67    8.558290774879e-05
  68    -0.00022681513247404
  69    -8.5537815623714e-06
  70    0.00011142513260868
  71    3.3172970183342e-05
  72    -4.3384229614109e-05
  73    3.0189225281454e-05
  74    5.5943957062864e-05
  75    -2.4980735789237e-05
  76    2.9646833633386e-07
  77    0.0022430185473879
  78    0.0051597487617447
  79    0.0015927291467231
  80     -0.04881626219435
  81      0.10761826938877
  82     0.074423043578245
  83     0.020501789661391
  84    -0.059017161732364
  85    -0.037827068470414
  86    0.00072290867432527
  87    -0.0031281239488617
  88    0.00091624008235144
  89      0.00523043474509
  90    -0.0021413729756286
  91     0.095183793436499
  92     0.022470370386173
  93    -0.0086989298547437
  94    -0.00028343190646787
  95    0.0037741313143242
  96    -0.022775048884771
  97    -0.0046679117304233
  98    0.0028035935023852
  99    -0.0045194335509599
 100    0.00025355053556167
 101    -0.084874144034193
 102     -0.01495356610119
 103    0.0022221007815463
 104     0.006881075812984
 105    -0.0027053049191223
 106    0.0019146151705236
 107    0.0040032545340499
 108    0.0022956020052512
 109    -0.059227692348033
 110      0.10204241765311
 111     0.056270473096374
 112     0.031089851479409
 113    -0.060466854491716
 114     -0.02790978857504
 115    0.0046401468653979
 116    0.00025996141877339
 117       0.0020174437728
 118    -7.2966356671217e-05
 119    0.0034136133954926
 120    -0.092095648147183
 121    -0.011766379634772
 122    -0.0063316453872766
 123    0.0045476296557436
 124    -0.00093390617245528
 125     0.074807444053453
 126     0.014114655116182
 127    0.0034736291612251
 128    0.00038188774042919
 129    0.0066711950797503
 130     0.002628510147587
 131    0.00022921303274688
 132    0.0016711429989191
 133    -0.0038466986628983
 134    -0.0021791790972225
 135    -0.0025219055064592
 136    -0.005909505788876
 137    -0.0019450781138187
 138     0.067025648874178
 139    -0.090367788061949
 140    -0.087250261473771
 141    -0.037432760982974
 142     0.042500987547837
 143     0.048177773438735
 144    0.0019561448645881
 145    -0.0021464367980001
 146    -0.00060914779926129
 147    0.0059038245038415
 148    0.00097756345125142
 149    -0.097866131638121
 150    -0.022868930050536
 151    -0.00060522624728248
 152    -0.0096497704934511
 153     0.001242038017777
 154     0.085038337104068
 155     0.015064768782464
 156    0.0070025139674982
 157     0.002642779332466
 158    -0.0020798507846034
 159      0.02517680470317
 160    0.0055571794898153
 161    -0.0046740375386046
 162    0.0028320168158069
 163    0.00050187603628227
 164    -0.0018653699470662
 165    -0.0038839157542475
 166    -0.0023279419789382
 167     0.070806375370923
 168    -0.085711385771168
 169    -0.062265762553828
 170    -0.042878406508588
 171     0.045210706394156
 172     0.033678187947775
 173    -0.0037059540592417
 174    -0.000376941648795
 175    -0.0036011772169599
 176    0.00091885752967034
 177    -0.0028190262025932
 178     0.012663828046203
 179    0.0033085345541025
 180    -0.0016342952256107
 181    0.0041171568753275
 182    0.0015469761341509
 183    -0.081107386038572
 184    -0.015694000430422
 185    -0.0030665255184149
 186    -0.0017311844807287
 187    -0.007094202165722
 188     0.082113624821564
 189     0.010899633891293
 190    0.0042730385920246
 191    -0.0049769730303331
 192    0.0029746397735008
 193    0.00011107322696804
 194    0.00040725193545394
 195    -0.00031679713724695
 196     -0.12284753510416
 197     -0.12773715882734
 198     0.067233580193296
 199     0.067083104500183
 200      0.06952324728692
 201    -0.036547274313639
 202    0.0047727695112468
 203    -0.0043883430661092
 204    -0.0037240768786509
 205    0.0023010046029687
 206    -0.0028227408198716
 207      0.11959619048736
 208     0.027161488921262
 209    -0.0028394758009684
 210    0.00060052601235077
 211     0.011589765034131
 212     -0.12324179833673
 213    -0.027839058388027
 214    -0.0043734243194822
 215    -0.0088468545095147
 216    -0.0071628064645494
 217    0.0042440100857572
 218    0.00099015972147215
 219    0.0038799442617816
 220    0.0047681989018665
 221    -0.0025759841208932
 222    0.0023201295673867
 223    0.0054086508133427
 224    0.0015732505846541
 225     0.048900521810676
 226     -0.10704831818717
 227    -0.076283417228248
 228    -0.020375670777245
 229     0.059136649390269
 230     0.038568406050395
 231    0.0011815418912879
 232    -0.0031454627347619
 233    0.00041776245034813
 234    0.0053810484715413
 235    -0.0017432488986315
 236    -0.088661847126792
 237    -0.015267831573183
 238    -0.001925530369744
 239    -0.0073878477682057
 240    0.0021517808392819
 241    -0.017497417443251
 242    -0.0039092877801541
 243    -0.0027200419839166
 244    0.0044542829100363
 245    0.00049568511844243
 246     0.093605845588573
 247      0.02219713991024
 248     0.008445551625555
 249    0.00091102864587572
 250    -0.0040366772354948
 251    0.0017667819557113
 252     0.003639654702402
 253    0.0019852632652671
 254     0.057947321541836
 255     -0.10101423246636
 256    -0.056159321924037
 257    -0.030753560314234
 258     0.059261929487086
 259     0.027772503642579
 260    0.0047824015726331
 261    -0.00016927414581471
 262    0.0023141057525089
 263    -0.00052585495098905
 264    0.0028500560850429
 265     0.078443058735002
 266      0.01517391529244
 267    -0.002851216431456
 268    -0.00059147050462779
 269    -0.0071946423290395
 270    -0.087478004368618
 271    -0.011151895700661
 272    0.0064010507715937
 273    -0.0037351681398622
 274    0.0014316582230615
 275    -0.0051248974797655
 276    -0.0014501882934896
 277    -0.0024624836516641
 278    0.0032520706424706
 279    0.0023048651265705
 280    -0.001917248667793
 281    -0.0039940244453628
 282    -0.0024997442748553
 283    -0.070875671730152
 284     0.086035712781365
 285      0.06192964678354
 286     0.043280646957604
 287    -0.045311987850609
 288    -0.033950873049471
 289    -0.0039590884807184
 290    -0.00045836193897556
 291    -0.0031012026056768
 292    0.00085595166356311
 293    -0.0030702356742432
 294    -0.078460134721178
 295    -0.014903416859422
 296    0.0030568447257993
 297    0.0011322584781474
 298    0.0070048190894901
 299     0.007337868844136
 300    0.0021413084895922
 301    0.0019756267867506
 302    -0.0037024306444928
 303    -0.0019711208583352
 304     0.085123712113613
 305     0.011206274976906
 306    -0.0046012438687966
 307    0.0051895908871691
 308    -0.0024730624350046
 309    -0.0023078097398186
 310    -0.0053533895668103
 311    -0.0016522324637033
 312    -0.067577035665914
 313     0.089048041154179
 314     0.085311778006843
 315     0.037337410936976
 316    -0.042162417040107
 317    -0.047049227125161
 318    0.0019871119098937
 319     -0.00172039881204
 320    -0.00059377810407748
 321    0.0058057558619981
 322     0.001606670661863
 323    -0.098233071025147
 324    -0.022826049958473
 325    -8.8039410522249e-05
 326    0.0096282600941381
 327    -0.0012883041866422
 328     0.029917416350553
 329    0.0061930807366606
 330    0.0049344099756806
 331    -0.0024937685860396
 332    8.3617111968326e-05
 333     0.080413989275963
 334     0.014414130603126
 335    -0.0066234422450179
 336    -0.0031141704795273
 337    0.0015972016133216
 338    5.1905708634418e-05
 339    0.00025469159596334
 340    -0.00042560527740005
 341      0.12307382055198
 342      0.12693825121945
 343    -0.065814302230625
 344     -0.06698222677178
 345     -0.06923743496366
 346     0.035931318569907
 347     0.004825780031811
 348    -0.0042047358882085
 349    -0.0036521045852559
 350    0.0023432047204973
 351    -0.002961870517572
 352     -0.12408848457332
 353     -0.02799555299418
 354    0.0044407814772588
 355    0.0090526471444955
 356    0.0069567234537483
 357      0.11744780803199
 358     0.026697609451824
 359    0.0025594588509894
 360    -0.00075079478149059
 361    -0.011455923565439
 362    0.0069002201316594
 363    0.0016666507020436
 364    -0.0035973290464837
 365    -0.0049003339986788
 366    0.0026804549861947
 Sym= A
 Ene=               8
 Spin= Alpha
 Occup=    1.00000
   1    7.1879229006423e-05
   2    -0.00020700847089345
   3    0.00099117066601285
   4    -0.0017887349095661
   5    0.0032054142607306
   6    -0.0092260826955527
   7    0.0017669728463874
   8    -0.010169002085831
   9     0.025117201156118
  10    -0.0048674496416569
  11      0.02757887788407
  12     0.023841057258437
  13    -0.0024534896831538
  14     0.029647615638189
  15    -0.0090199647366879
  16    -0.00026730734751291
  17    -0.0062286165934594
  18    0.0028660999348566
  19    -0.0067841169049255
  20     -0.01115075678662
  21    -8.784690730584e-05
  22    -0.0073432237241413
  23    0.0034162248849219
  24    -0.0094240202114876
  25    -0.00031949272561782
  26    -0.00087324618562293
  27    -0.00054907956437882
  28    -0.00047450578636273
  29    0.00075416670727928
  30    0.00030886356258695
  31    0.00086763212036956
  32    -6.9500897305935e-05
  33    0.00020040707934661
  34    -0.00095734541312501
  35    0.0016610476770929
  36    -0.0030736814115212
  37    -0.0091593087402626
  38    0.0018397492094328
  39    -0.010187012269921
  40     0.024928841931785
  41    -0.0050851249040429
  42      0.02764563116394
  43     0.023688506474913
  44     -0.00250254489956
  45     0.029588820238025
  46    0.0089758574484127
  47    0.00026498472693359
  48    0.0061873750295256
  49    -0.0027781404761427
  50     0.006734770409137
  51     0.011070967715044
  52    0.00013970334825521
  53    0.0073297274802807
  54    -0.003455704524368
  55    0.0094032626114173
  56    -0.00032479368290961
  57    -0.00087511719008552
  58    -0.00054094167557169
  59    -0.00045980254334747
  60    0.00075384888900989
  61    0.00030960826599078
  62    0.00087980495447685
  63    -2.2053610169786e-05
  64    -4.5712000334148e-05
  65    -3.3162770736316e-05
  66     0.011423258389763
  67    -0.0019436744494978
  68     0.013221874388808
  69     0.010812915243611
  70    -0.00084823329270652
  71      0.01429176689402
  72    1.3972050963366e-06
  73    5.8110269096413e-07
  74    -3.0241140031106e-06
  75    -2.3442675841272e-06
  76    1.1280817694101e-06
  77     0.015522582963179
  78     0.035782208012651
  79     0.036356471475677
  80    -0.0055744069048757
  81      0.10676987682308
  82     0.083865647504465
  83    -0.0096897662074032
  84    -0.060990828647666
  85    -0.051873387334371
  86    -0.00035457530766849
  87    -0.0032812705957873
  88    0.00093331655971177
  89    0.0044949298943086
  90    -0.0016076344422107
  91     0.080964301632805
  92     0.015823624909479
  93    -0.0079980372523609
  94    -0.0009239323299044
  95     0.003034543663981
  96    -0.028644880482605
  97    -0.0096209682864858
  98    0.0015932126862492
  99    -0.0047057282934834
 100    0.00019198375674221
 101    -0.073529003019699
 102    -0.021999368642529
 103    0.0011448127642734
 104    0.0057507239558502
 105    -0.0033519512718876
 106     -0.01259232337448
 107    -0.028679039859344
 108    -0.031760554740372
 109      0.03881517339219
 110     -0.11026369410744
 111    -0.023572346275744
 112    -0.020994267889634
 113     0.063917601916377
 114    -2.6600195205693e-05
 115    -0.003784359232364
 116    4.1164900293233e-05
 117    -0.0015111373066643
 118    0.0003478939069726
 119    -0.0030632455905242
 120     0.077113662709259
 121     0.025061999152211
 122    0.0059436923046215
 123    -0.0023761644780714
 124    0.00084639195425519
 125    -0.065404002477195
 126    -0.016178413373362
 127    -0.0022348299722637
 128    0.00046519466868355
 129    -0.0073230419326411
 130    0.0077790483081546
 131    0.0046996322221972
 132    -0.0024103438589752
 133    0.0028308401180945
 134    0.0015010079807766
 135     0.012886181871966
 136     0.029695600891469
 137     0.030182764942206
 138    -0.045973809259384
 139     0.043384482816516
 140     0.090435549865218
 141     0.022509686300828
 142    -0.017497691917373
 143    -0.059459499827676
 144    -0.0018465525510452
 145    0.00062023537635179
 146    9.4798639579687e-05
 147    -0.0043073322814911
 148    -0.00064992253091988
 149     0.065417347003029
 150     0.012340835142615
 151    0.00093772649133259
 152    0.0067269664000513
 153    -0.0013136950334612
 154    -0.059354664457631
 155    -0.017593527803913
 156    -0.0052056562135922
 157    -0.0016389078540398
 158    0.00055092950925808
 159    -0.023433977715609
 160    -0.0077256850320906
 161     0.003585648668948
 162    -0.0014375471827378
 163    -0.0012127731429794
 164    -0.015264389452596
 165    -0.035071926156334
 166      -0.0366255373764
 167      0.11066117898875
 168    -0.070633361590937
 169    -0.057674695737908
 170    -0.072111585359043
 171     0.031441633407852
 172     0.024174312367233
 173    -0.0036109271350581
 174    -0.00018132342152448
 175    -0.003674914020995
 176    0.00077969505912275
 177    -0.0033127274266843
 178      0.01984089648363
 179    0.0075031982561473
 180    -0.0020920226319616
 181    0.0045205459725907
 182    0.00058069033086767
 183    -0.083253766771452
 184    -0.019497785055341
 185    -0.0044582362107905
 186    -0.0029626392785987
 187    -0.0076482314764683
 188     0.085851117923336
 189     0.026899477649145
 190    0.0031301382741232
 191    -0.0054755999112032
 192     0.004049220274075
 193    -3.960192955392e-05
 194    -0.00042866142790585
 195    0.00086840585454237
 196     -0.13126956055512
 197     0.025549890579194
 198     -0.14523753157675
 199     0.070985263796039
 200    -0.013619592965757
 201      0.07845273825312
 202    -0.0018947661163814
 203    0.0039784984672705
 204    -0.0024027526506718
 205    0.0024625916453185
 206    -0.0063358828388194
 207    -0.065446375564386
 208    -0.014091306359061
 209    0.0083221619540115
 210    0.0010201516100398
 211    -0.0025552936461541
 212    -0.079117676431102
 213    -0.016823916182433
 214    -0.00077799900609546
 215    -0.0093540894644682
 216    0.0018745589655962
 217      0.14654665543963
 218     0.030907239648765
 219    -0.010691744677312
 220    0.0087213639878801
 221    -0.003222182046758
 222    -0.015520451801977
 223     -0.03564154963796
 224    -0.037227308505916
 225    -0.0045144491809238
 226      0.10566364665761
 227     0.082499799676406
 228    -0.010383984923944
 229    -0.059980754679252
 230     -0.05145880589468
 231    -0.00014217443828366
 232    0.0032477750092679
 233    -0.00052517749335033
 234    -0.0045749360238915
 235    0.0012373716071603
 236     0.076861085837106
 237     0.023444788930522
 238    0.00085326608143347
 239    0.0061936458907666
 240    -0.0027702059012807
 241     0.022095538657973
 242    0.0079762783354811
 243    0.0013740504738339
 244    -0.0045396319901453
 245    -0.0005949621408059
 246     -0.07729916867793
 247    -0.014906181366061
 248    -0.007501776435038
 249    -0.0014957425945073
 250    0.0031909588668477
 251     0.012532886179173
 252     0.028671934742619
 253     0.030840980555661
 254     0.039983328212033
 255     -0.10975864416583
 256     -0.02351631433225
 257      -0.0214493847611
 258     0.064081219122972
 259    0.00037673348519145
 260    0.0039338898692076
 261    -0.00040791522631858
 262    0.0017524648578616
 263    -0.00069638431825884
 264    0.0026868113094919
 265     0.067825404645035
 266     0.016587264639395
 267    -0.0017212722616071
 268    0.00028214579165405
 269    -0.0075970155567195
 270    -0.074190847594222
 271    -0.023813181899481
 272    0.0059570892443123
 273    -0.0017494957081383
 274    0.0012520664225773
 275    -0.012523207395903
 276    -0.0056365852696135
 277    -0.0029151768155394
 278    0.0024031080985233
 279    0.0014903281353481
 280     0.015314607182017
 281     0.035065437556539
 282      0.03759220365244
 283       0.1102370567038
 284    -0.068881909804114
 285    -0.057825722798701
 286    -0.071696561163233
 287     0.030339105502515
 288     0.023845542505882
 289     0.003810999557688
 290    0.00027909907438773
 291    0.0031648937215353
 292    -0.00069683339763541
 293    0.0034704464630586
 294     0.080598710915559
 295     0.019052224783086
 296    -0.0045086211272976
 297    -0.0024371104882308
 298    -0.0075932536978442
 299    -0.015889659952127
 300    -0.0068068522067802
 301    -0.0023422667681227
 302    0.0042109993216641
 303    0.00094094412278607
 304     -0.08762128931743
 305    -0.028027067486252
 306    0.0034142297002138
 307    -0.0057012875516362
 308    0.0035508093026349
 309    -0.012875331420587
 310    -0.029798034476231
 311    -0.029348389362564
 312    -0.045405312924658
 313     0.044325137866747
 314     0.090766686878622
 315     0.022687147667718
 316    -0.017905651674471
 317    -0.059464323182559
 318    0.0019376067833762
 319    -0.00029289037590508
 320    -2.3331117933924e-05
 321    0.0042532491706277
 322    0.0011111457163686
 323    -0.067428816167712
 324    -0.012945698298724
 325    0.00038150513684586
 326    0.0069501096169145
 327    -0.001404327052637
 328     0.028599762124906
 329      0.00899654137045
 330    0.0039399446345172
 331    -0.0012565648134922
 332    -0.0006883874858568
 333     0.055677326378212
 334     0.016122235073883
 335    -0.004924483834134
 336    -0.0020603390790427
 337    0.00011419095042979
 338    2.0817426951748e-05
 339    0.00036776874962158
 340    -0.00081927288923163
 341     -0.13021943013553
 342     0.025682712515775
 343     -0.14461325753395
 344     0.070191615367428
 345     -0.01389252299656
 346     0.078223620583211
 347     0.001999817830878
 348    -0.0040365221719008
 349    0.0022561963647212
 350    -0.0025250278215284
 351    0.0062264336941661
 352      0.07688504152157
 353     0.016480611477824
 354    -0.00068633979271239
 355    -0.0091680646869821
 356    0.0020282181742916
 357     0.066935258863175
 358     0.014215805352164
 359    0.0083137630267091
 360    0.0010000163483643
 361    -0.0027582135527864
 362     -0.14580744914945
 363    -0.030752357781985
 364    -0.010780385039134
 365    0.0085277319719163
 366    -0.0031308418180541
 Sym= A
 Ene=               9
 Spin= Alpha
 Occup=    1.00000
   1    1.5431201778128e-05
   2    -4.9060389076015e-05
   3    0.00020043400560987
   4    -0.00026395017832766
   5    0.00060914357294619
   6    0.0083580805605272
   7    0.0094698910985385
   8    -0.0058205284322428
   9    -0.022737851414431
  10    -0.025712718023105
  11     0.015830597994265
  12    -0.022951196836668
  13    -0.025809603860619
  14     0.016079797008542
  15    -0.0050045807135431
  16    0.0066238843249832
  17    0.00082350044053065
  18    -0.010013838653398
  19    0.0015990180546142
  20    -0.0061500514760967
  21    0.0082148296201563
  22    0.00078449662702913
  23    -0.012704883888185
  24    0.0017952058212981
  25    0.00070631656264619
  26    2.8459373217801e-05
  27    -0.00083279208079014
  28    -0.00094694966544309
  29    -0.00064940523426544
  30    -0.00061560295171197
  31    4.0814709776756e-05
  32    -2.0698506507868e-05
  33    6.3555535362541e-05
  34    -0.00027284309693246
  35    0.0003347005675973
  36    -0.00046073086010595
  37    0.0082955285005475
  38    0.0095374250664731
  39    -0.0058748901800238
  40    -0.022536727668893
  41     -0.02591524834207
  42     0.015978118349728
  43    -0.023017489775325
  44    -0.025736154016525
  45     0.016320973648176
  46    0.0050527636026776
  47    -0.0066836170856745
  48    -0.0007779752559021
  49     0.010076106086267
  50    -0.0015974585543561
  51    0.0061673519990719
  52    -0.0081941913299466
  53    -0.00084540498050236
  54     0.012760026015832
  55    -0.0018032243334987
  56    0.00070579381257655
  57    2.2594061627407e-05
  58    -0.00081892253258131
  59    -0.00094642597063607
  60    -0.00065866288682686
  61    -0.0006238716285006
  62    3.1772437321769e-05
  63    -7.0258649750414e-05
  64    -0.00017990593664123
  65    -8.9891053554088e-05
  66    -0.010311783658298
  67    -0.011745713811561
  68    0.0073607111409254
  69    -0.010297644549782
  70    -0.011619913835408
  71    0.0074641256091602
  72    3.3530141625224e-06
  73    3.6208057106268e-06
  74    -2.2187929280778e-06
  75    -5.0814409984207e-07
  76    -2.0609518050906e-06
  77     -0.01310436318445
  78      -0.0305225208849
  79    -0.030087711791207
  80    0.0078397527686467
  81    -0.094505256520291
  82    -0.074398638344345
  83    0.0080158737540678
  84     0.053900763913892
  85      0.04136423306475
  86    -0.00041402713785888
  87     0.002309579970859
  88    -0.00078180712957768
  89    -0.0042573350316032
  90     0.001717598897154
  91    -0.073614212451873
  92    -0.017296199050994
  93    0.0077034853662406
  94    0.00045662387798521
  95    -0.0025235175712708
  96      0.02371590203631
  97    0.0081807184943105
  98    -0.0017409894505187
  99    0.0041467036495691
 100    -0.00053675072835227
 101     0.066890164878848
 102     0.022001659789783
 103    -0.0010538270090655
 104    -0.0050855658606778
 105    0.0032749490784863
 106    -0.015095375935888
 107    -0.033937103953209
 108    -0.039285316398598
 109     0.055703906746442
 110     -0.12001108229875
 111    -0.017737032977886
 112     -0.02524364869528
 113     0.075075378384642
 114    -0.0018065594549231
 115    -0.0044734782966847
 116    -0.00033846171056949
 117    -0.0016711445450304
 118    9.8653380581691e-05
 119    -0.002973228423763
 120     0.089625783475841
 121     0.027775106422633
 122    0.0064274503367295
 123    -0.0034445653457304
 124    0.00057785197103225
 125    -0.064303728381114
 126    -0.012062079096337
 127    -0.0032433915155939
 128    0.00048475488289563
 129    -0.0065843715668478
 130    -0.00065655473694651
 131    0.0013757358749679
 132    -0.0016984616757802
 133    0.0043683518405198
 134    0.00082898987560862
 135     0.016053610739869
 136     0.037448448474822
 137     0.036473330221461
 138    -0.059272309744751
 139     0.059477871816194
 140      0.11624831561401
 141     0.032062785251943
 142    -0.020776348388504
 143     -0.07262951783514
 144    -0.0017915475850298
 145    0.0018611795245901
 146    0.0002940532444103
 147    -0.0055018169372777
 148    -0.001040710707108
 149      0.08744858667496
 150     0.019841336928251
 151    0.0005497935970104
 152    0.0093550692170205
 153    -0.0020767065004395
 154     -0.07862196553712
 155    -0.025330842095747
 156    -0.0068056129180935
 157    -0.0023499292584422
 158    0.00039481495019087
 159    -0.029154094946679
 160    -0.010126426651251
 161    0.0049092189861746
 162    -0.001964441663507
 163    -0.00092877608608917
 164     0.012531129698683
 165     0.028457288735143
 166     0.030897187921763
 167    -0.086571050246224
 168     0.056671643371217
 169      0.03520719761112
 170     0.058475009472774
 171    -0.024491139399506
 172    -0.018608221576943
 173    0.0028689052060182
 174    0.00066645421643528
 175    0.0028930758342805
 176    -0.00059130942972688
 177    0.0020947482580102
 178    -0.010399740196679
 179    -0.003745545402963
 180    0.0024814390042935
 181    -0.002800265579775
 182    -0.00077186292248244
 183     0.058372985428712
 184     0.010526373327651
 185    0.0030476689806204
 186    0.0012211444442301
 187    0.0054332051969872
 188    -0.067257914462148
 189    -0.019746546235551
 190    -0.0027706426634348
 191    0.0042903952431774
 192    -0.0026406020532174
 193    -0.00010764872565285
 194    -0.00042615661765502
 195    0.00046435190493884
 196       0.1169985271923
 197      0.13498258754699
 198    -0.081890699066337
 199    -0.062974871471693
 200    -0.072329292306257
 201     0.043957799590367
 202    -0.0049729000960632
 203     0.004705944305858
 204     0.003595719580622
 205    -0.0019779198062706
 206    0.0023277596612542
 207      -0.1298881632133
 208    -0.027935035159818
 209    0.0036059069309986
 210    -0.00063025999245924
 211    -0.012388266642871
 212      0.12180870412406
 213     0.026104546146723
 214    0.0044752890229388
 215    0.0084819407659896
 216    0.0077489235344184
 217    0.0076558779787458
 218      0.00161600656803
 219    -0.0049931333895549
 220    -0.0043259118084056
 221     0.002459458822915
 222     0.013158641295212
 223      0.03057759310453
 224     0.030752674531033
 225     0.007889138250496
 226    -0.094240724919389
 227    -0.075960633939215
 228     0.008302310277578
 229     0.053682510719249
 230     0.041781373081216
 231    0.00079682469834754
 232    -0.0023380549764022
 233    0.00041914414913225
 234    0.0043837582503973
 235    -0.0014087463157976
 236    -0.070419386116383
 237    -0.023227689434227
 238    -0.00085170384956778
 239    -0.0055546294133476
 240    0.0028602231924909
 241    -0.019615920106328
 242    -0.0075011283078083
 243    -0.0016799229232651
 244    0.0041034629571655
 245    3.757597379417e-05
 246     0.072727411618377
 247     0.017245948822664
 248    0.0075734682386432
 249    0.00096083280951382
 250    -0.0027395385043456
 251     0.015059825291482
 252     0.034032330846394
 253     0.038182203096557
 254     0.055463335880407
 255     -0.12132182021861
 256    -0.018860086206115
 257    -0.025689813817994
 258     0.075972955781219
 259    -0.00096411394056302
 260    0.0047280198465303
 261    -5.5481353505345e-05
 262     0.001985950129528
 263    -0.0005123824053359
 264    0.0025143560380495
 265     0.069476559248237
 266     0.013294031808264
 267    -0.0027346570868163
 268    0.00026400337449045
 269    -0.0072362907527245
 270    -0.086898094488639
 271     -0.02629913030382
 272    0.0066437716455834
 273    -0.0027176536902253
 274    0.0011177089659456
 275    -0.006623913100296
 276    -0.0032974600097029
 277    -0.0024857502530635
 278    0.0038744509926708
 279    0.00098394693220228
 280    -0.012551026749946
 281    -0.028354657540739
 282    -0.031779020352194
 283    -0.086726379082764
 284     0.057180432830682
 285     0.034472584079488
 286     0.058565058196857
 287    -0.024295883326917
 288    -0.018414427699456
 289    -0.0030595726402402
 290    -0.00071002233820846
 291    -0.002496066147977
 292    0.00054081352422328
 293    -0.0022834775167916
 294    -0.055973419331155
 295    -0.0099425703932653
 296    0.0030362261986606
 297    0.00073151616516703
 298    0.0053248193766536
 299    0.0060176919351422
 300    0.0026112924530814
 301     0.002761631964093
 302    -0.0024498700569766
 303    -0.0010997652566894
 304     0.069867531630008
 305        0.020908560809
 306    -0.003063293570731
 307    0.0044967789387262
 308    -0.0021885388794113
 309    -0.016055939709553
 310    -0.037551254106346
 311    -0.035656961917701
 312    -0.060521450002552
 313     0.059811265317588
 314       0.1161597864487
 315      0.03280099887349
 316    -0.021334469353029
 317    -0.072846223511555
 318    0.0018741841072094
 319    -0.0014956105278999
 320    -0.00024966758280222
 321     0.005487735200336
 322    0.0016394440813815
 323    -0.089338716150455
 324    -0.020070661136148
 325    -9.6678191535206e-05
 326    0.0094786389110254
 327    -0.0021199111827755
 328     0.034254897183776
 329     0.010898965674123
 330    0.0052511816946981
 331    -0.0017319896900608
 332    -0.00041278179607306
 333     0.075147441879037
 334     0.023835898464962
 335    -0.0064878972051468
 336    -0.0028306756250327
 337    -8.2299055817164e-05
 338    6.9986600415316e-05
 339    0.00031242456824725
 340    -0.00038278012468606
 341      0.11733520793466
 342      0.13587435197338
 343    -0.082481450264346
 344    -0.062923098224108
 345    -0.072980124352737
 346     0.044459303424752
 347    0.0051053426177459
 348    -0.0046072565442396
 349    -0.0035535972281468
 350    0.0020155384985671
 351    -0.0024496919116572
 352     -0.12349010100094
 353    -0.026531224540304
 354    0.0045962003708149
 355    0.0087281267188013
 356    0.0076479362603943
 357      0.12971813525592
 358     0.027800133856367
 359     0.003419160779467
 360    -0.00078467691148832
 361    -0.012413307331829
 362    -0.0062278410419428
 363    -0.0012332339860434
 364    -0.0048518484142955
 365    -0.0044545099347687
 366    0.0025685387112103
 Sym= A
 Ene=              10
 Spin= Alpha
 Occup=    1.00000
   1     0.008061365088771
   2    -0.014351652360697
   3     0.036983502772087
   4     0.048063725324975
   5    -0.012548392261061
   6    0.0043107155522631
   7    -0.0012987562562129
   8     -0.03695996707579
   9    -0.014227717760549
  10    -0.0011588076617166
  11       0.1140392385844
  12     0.018996967521981
  13     0.033181785870471
  14     -0.05547215644803
  15    0.0053922178063044
  16    -0.0027210950105516
  17    -0.00057537618784442
  18    0.0055336942022505
  19    0.0027257695228868
  20    0.0022447444227658
  21    -0.0029191784798839
  22    0.0021471814441775
  23    0.0016253108804247
  24    -0.001681904718806
  25    0.00024288457763309
  26    0.00013489456852389
  27    0.0054984811902069
  28    0.0051858928548398
  29    0.00087831790655067
  30    -0.001181720258816
  31    -0.00055601639352031
  32    -0.011092741682225
  33     0.014725109531018
  34    -0.038210270437789
  35    -0.046274185350666
  36     0.012167269914713
  37    -0.0024103545781374
  38    -0.004923112049653
  39    -0.035078955249579
  40    -0.0020165316059348
  41     0.010565621448428
  42      0.11443663109394
  43     0.018094545400211
  44     0.031382951613882
  45    -0.054992751104546
  46    -0.0056642488022084
  47     0.003420123422743
  48      0.00026426236922
  49    -0.0048359677116276
  50    -0.0018256449926154
  51    -0.0021731695365087
  52    0.0032195383602002
  53    -0.0024764464558691
  54    -0.0014567681417914
  55    0.0020307954402446
  56    0.00037100984994767
  57    0.00013482691222455
  58    0.0054540117839658
  59    0.0052713086704876
  60    0.0010493660019183
  61    -0.0012818104510362
  62    -0.00059435460320646
  63    0.0011829830266529
  64    0.0054839612122181
  65     0.004963024770513
  66    -0.014991922074822
  67    -0.0075015595640094
  68     0.026288458808621
  69     -0.02369144418709
  70    -0.012937231083356
  71     0.045803356743211
  72    -1.2155586467846e-05
  73    -5.2116567888692e-05
  74    0.00011356846322279
  75    -3.7226891991729e-05
  76    -6.8126242390833e-05
  77    0.0081860727812928
  78     0.022097563853044
  79     0.029181087068663
  80     0.087726413023653
  81    -0.013212740747694
  82    -0.016974780180228
  83    -0.060054328144761
  84    -0.00069995701401789
  85    0.0096799517934043
  86    0.0010351279459293
  87    0.0031959330076105
  88    -0.00040484607712072
  89    -0.0019046545015923
  90    0.00078222680171294
  91    -0.058778290434084
  92    -0.013120018142957
  93    0.0029627638689551
  94    -0.0014863268814704
  95    -0.0037210550613973
  96    0.0040960143389066
  97    5.6736693713679e-05
  98    -0.002139918445016
  99    0.00095597543882563
 100    0.0011988303036049
 101     0.017844991632583
 102    -0.00065944579645006
 103    -0.0029714665711679
 104    -0.0016671699735192
 105    0.00022558954253359
 106     0.029448738677626
 107     0.064879998497182
 108      0.12592276427994
 109     0.022077665502252
 110      0.10020420610055
 111     -0.25594570846035
 112    -0.013815199114143
 113     -0.09154009598182
 114      0.18270224441639
 115    -0.0036116587805364
 116    -2.7503967012012e-05
 117    -0.002638434353314
 118    -0.00019367932396448
 119    -0.0020426606112265
 120    -0.00066117406384433
 121    -0.019008061375922
 122    -0.0019786732540939
 123    -0.0012018396815622
 124    0.0074386848431493
 125     -0.11978380383846
 126    -0.031804795473041
 127    -0.0025577146597592
 128    -0.0093815493437937
 129    -0.007298590676959
 130    -0.046201146270072
 131    -0.016662481999294
 132     0.005216569886907
 133    0.0010465668056779
 134    0.0073745253200539
 135    -0.028133489485517
 136     -0.05878438070469
 137      -0.1079303879047
 138    -0.030120186341003
 139      0.13636183611508
 140     -0.14995853341156
 141     0.011678664213823
 142     -0.10011393388853
 143      0.12156532251416
 144    -0.00021055422423364
 145    0.0015651373043699
 146    0.00035510222956692
 147    -0.0015145979553755
 148    -0.00015042327326208
 149     0.061369218962982
 150     0.020547943405312
 151    0.00017159278183258
 152    0.0045641875963348
 153    0.0055687325818813
 154    0.0021672842150198
 155       0.0128750829064
 156    0.0021012713959262
 157    -0.0044795588610953
 158    0.0037990701720624
 159     0.056512238751855
 160     0.018697198990389
 161    -0.0041743399602081
 162    -0.0055629345821475
 163    -0.0013744234911501
 164    -0.0076789688644286
 165    -0.017649639964443
 166    -0.011839069470166
 167    0.0054661794356022
 168    0.0027979978556454
 169     -0.00989849326714
 170    -0.0075105924678529
 171    -0.005618333532546
 172     0.010091383376582
 173    -0.00077843157172917
 174    -0.0012201676189688
 175    -0.00092091202731511
 176    0.00014201110311252
 177    0.0012170150587245
 178    0.0038175849064866
 179    0.0020356996491595
 180    -0.0010838483550587
 181    -0.00041336839452322
 182    -1.6290912777856e-05
 183    -0.012453318274835
 184    -0.001116445793055
 185    0.0001671560276214
 186    -0.00039866638427634
 187    -0.0010215647788277
 188    -0.0066501598790987
 189    -0.00076192266832898
 190    -6.151793651616e-05
 191    0.00053909012031297
 192    -0.00026754448629242
 193    -0.0010904691226648
 194    -0.0038448276554375
 195     0.030040521330658
 196     0.036073927397757
 197    -0.042506613756489
 198    -0.095627366373957
 199    -0.027989928297888
 200     0.028950199133803
 201     0.065294486174422
 202    -0.0025559786102951
 203    0.0025414778941319
 204     0.000232481631924
 205    -0.00057447875951175
 206    -0.0015438976001734
 207    -0.067230567154669
 208    -0.016197711837469
 209    0.0024475734208792
 210    0.0044026838662911
 211    -0.0045201825542776
 212    -0.027254348946081
 213    -0.0063479323009688
 214    -0.0036214259603102
 215    -0.0024357319269634
 216    0.0012735847066405
 217    0.0030828416818073
 218    -1.4624886657566e-05
 219    -0.00011288930703516
 220    0.0008918272853891
 221    0.0030436117977388
 222    -0.012602054130762
 223    -0.036309788379175
 224    -0.034138556405644
 225     0.082024941722781
 226    -0.012948262342541
 227    -0.022726376115238
 228    -0.057763803325789
 229    -0.0012791062977893
 230     0.012404264546568
 231    -0.00086615382118182
 232    -0.0033916894038323
 233    0.00030186819263806
 234    0.0019768292829348
 235    -0.00056809171733241
 236    -0.024711358792171
 237    -0.00026277566303346
 238    -0.0025807989916827
 239    -0.0027326393937356
 240    0.00033973861097094
 241    -0.010951488752708
 242    -0.00099281091737114
 243    -0.0021955066877005
 244    0.0013356506163669
 245    0.00035621390325115
 246     0.053113322336996
 247     0.013017958033911
 248    0.0023248257004773
 249    -0.00088135875109195
 250    -0.0031931653035566
 251    -0.037986978520098
 252    -0.071674490004039
 253     -0.12817317351119
 254     0.027086725776426
 255     0.095411085078396
 256     -0.25420608344232
 257    -0.016354888901015
 258    -0.089277649656333
 259      0.18213154685134
 260    0.0038319354073879
 261    -0.00036802791632757
 262     0.002874050286242
 263    -5.7462037466951e-05
 264    0.0018804284429297
 265      0.11946586338881
 266     0.032458654294736
 267    -0.0016550472512486
 268    -0.0091596458985273
 269    -0.0072607779401178
 270    -0.0034073620466488
 271     0.017166981778989
 272    -0.0017099418319466
 273    -0.0014636521852509
 274    0.0073037703266804
 275     0.040418618825904
 276     0.016036371963727
 277    0.0041238572439706
 278    0.0010579909629801
 279    0.0075917605711995
 280    0.0092470625931053
 281     0.017907244116214
 282     0.014070510842567
 283    0.0090174973128491
 284    0.0051278358070994
 285    -0.010558927099088
 286    -0.010209570092258
 287    -0.0070579255020923
 288    0.0098656119473966
 289    0.00085890405088475
 290    0.0012446893662736
 291    0.0010009685209423
 292    -5.8814691350761e-05
 293    -0.0011968138107299
 294     0.012625580936658
 295    0.0013950751888491
 296    0.00010698087273298
 297    -0.00042005789700555
 298    -0.00099800240581215
 299    -0.0063414704241024
 300    -0.0028132828896684
 301    -0.00098532746179015
 302    -0.00024482998839935
 303    -0.0001912880454081
 304    0.0059453523689007
 305    0.00012486954848299
 306    -0.00017478455007545
 307    0.00039103273656282
 308    -0.00016323350326061
 309     0.034510684465094
 310     0.070006243922841
 311      0.11235867069433
 312    -0.020260693764457
 313      0.12927876664654
 314      -0.1506773655174
 315    0.0064881676721226
 316    -0.096853941321256
 317      0.12311675219714
 318    0.00014034855264717
 319    -0.0010123438209056
 320    -0.00038767346512118
 321    0.0011745209946626
 322    0.00023049708511877
 323    -0.052596888222706
 324    -0.019620121443073
 325    -0.00042283382100654
 326    0.0035305512087947
 327    0.0051572677379123
 328    -0.046991846643155
 329     -0.01721971411391
 330    -0.0032710921013857
 331    -0.0052696661492871
 332    -0.00051725578214854
 333    -0.0075262951770955
 334    -0.013758892202121
 335    0.0021646754106258
 336    -0.0041559190516135
 337    0.0036289553971042
 338    0.0011066192308774
 339    0.0070470304364799
 340     -0.03159488594096
 341     0.040266020620008
 342    -0.044055214805165
 343     -0.10220025978904
 344    -0.030473121661163
 345     0.030674287710469
 346     0.069442876107755
 347    0.0027515738531333
 348    -0.0026757130677367
 349    -0.00033061281448894
 350    0.0005911788427565
 351    0.0015221853125558
 352     0.027593620442578
 353     0.006314230616452
 354    -0.0038266928850077
 355    -0.0025187739561498
 356    0.0014846947300639
 357      0.07412397685398
 358      0.01737940491026
 359    0.0026304386497509
 360    0.0046103269823947
 361    -0.005193071760804
 362    -0.0014246666996933
 363    0.00049610371721271
 364    -1.3049787274595e-05
 365    0.00080699359446339
 366    0.0033916579517967
 Sym= A
 Ene=              11
 Spin= Alpha
 Occup=    1.00000
   1    -0.017797357755685
   2     0.040294382490682
   3     -0.10517238649194
   4    -0.096705624212336
   5     0.028700530903111
   6    -0.027963559790538
   7     0.096779234042201
   8     0.017122572933937
   9     0.091802143202111
  10     -0.28381530200955
  11     -0.04261849222971
  12    -0.025637917186191
  13     0.044206795142456
  14    -0.016603005222966
  15      0.00389650598808
  16    -0.0050873297965535
  17    0.0037634114131691
  18    -0.0044269759395029
  19    -0.0040512735169285
  20    0.0020374737716681
  21    0.0040003975525782
  22    -0.0055602632602057
  23    0.0021488997617633
  24    0.0064711485230262
  25    -0.002209870046007
  26    -0.00057380894640496
  27    0.0040123118506723
  28    -0.00010392549469786
  29    -0.003802622644958
  30    0.0020816909639356
  31    -0.00056355501075556
  32     0.020492690819689
  33    -0.039966532228655
  34      0.10226821384348
  35      0.09465857625903
  36    -0.031163580869913
  37    -0.024019858947668
  38     0.050827981901429
  39    -0.015158876443597
  40     0.065907155494795
  41     -0.17452155389727
  42     0.038662257652216
  43    -0.023604445310055
  44      0.03697186610371
  45    -0.020446394609512
  46    -0.00056905664359704
  47    0.0022524768707905
  48    -0.0070549142525353
  49    0.00022433395999847
  50    0.0012613254321754
  51    -0.0020985325918045
  52    -0.0040469323294844
  53     0.006076845362674
  54    -0.0024509893104982
  55    -0.0066812831130504
  56    -0.0019811770806638
  57    -0.00060017813416356
  58    0.0038821791358497
  59    7.3534949329385e-05
  60    -0.0034439011674109
  61    0.0019156791308947
  62    -0.00058159658142893
  63    -0.0067791606017639
  64    -0.0090432228528072
  65    -0.010543403663034
  66     0.023942952789531
  67    -0.028499844172503
  68    -0.013243396169722
  69     0.040458880507917
  70    -0.054644147076496
  71    -0.017414066785258
  72    8.0860163421452e-05
  73    0.00011539470745554
  74    -0.00018719660663838
  75    3.8497738358802e-05
  76    0.00019322724459584
  77    -0.0029527983138535
  78    -0.011597407998048
  79    -0.028993789553956
  80     -0.13452027667328
  81     0.020630192012416
  82     0.037864606063804
  83     0.088911778650571
  84    -0.0091534817343232
  85    -0.014425906592769
  86    -5.4845254543095e-06
  87    -0.0035354345443289
  88    0.00057076491654729
  89    0.0038120480602331
  90    -0.0026228943949396
  91      0.10144886034453
  92     0.020291251799126
  93    -0.0065217991909891
  94    0.0033594520435719
  95    0.0058511684663752
  96    -0.0055781368023479
  97    -0.0010366781208487
  98    0.0046919551240884
  99    -0.00042033316105228
 100    -0.0013545453553269
 101     -0.02222928594965
 102    -0.0008084464146855
 103     0.003807545742103
 104    0.00059053592301145
 105    -0.0015147605284738
 106    -0.020846164728266
 107    -0.052505486864535
 108    0.0074634951273936
 109     0.010004665978555
 110      0.10145293682119
 111    -0.0078487687888607
 112    -0.0049916399269162
 113    -0.063466443060058
 114    0.0086185045679506
 115     0.003333431358399
 116    0.0004449660787707
 117    0.0023192826349813
 118    -3.6120627326377e-05
 119    0.00061347483612175
 120    -0.065665761293372
 121    -0.015270634810346
 122    -0.0073780529209709
 123    0.0025142905279586
 124    0.0013780707335471
 125     0.017749282372764
 126    0.0037633882759039
 127    -0.00053086716385976
 128    -0.0029865441868536
 129    0.0010649842044015
 130    -0.065376258198128
 131    -0.012250236553207
 132    0.0078473631423855
 133    0.0015951063010477
 134    -0.00057465024466709
 135    -0.0096238013585829
 136    -0.035489100450424
 137    -0.065335337114015
 138     0.020829872177213
 139      0.17174358473244
 140    -0.074104106838949
 141    -0.010619167537526
 142     -0.11265374307407
 143     0.065114637212459
 144    -0.003084680443496
 145    -0.0008097564743768
 146    0.00073922885898604
 147    -0.0041243576641202
 148    -0.001151540938617
 149      0.10643693745929
 150     0.025613725036217
 151    -0.0024847972449311
 152    0.0086710434753844
 153     0.004537299814643
 154     0.017294090518493
 155      0.01301137865915
 156    0.0024547689052252
 157    -0.0050876151697888
 158    0.00032904172034411
 159    -0.014573879031778
 160    0.00053620531164061
 161    -0.0003264678644761
 162    -0.0055635821713023
 163    0.0027818339387347
 164     0.012011951057093
 165     0.027567157891054
 166    -0.0022120213722186
 167     0.031684080731262
 168    0.0057234668022388
 169     0.053244235310559
 170    -0.019724933402871
 171    -0.0098249811336348
 172    -0.029663521548416
 173    0.0010959626022524
 174    0.00023758630712336
 175    0.0014738285582484
 176    -0.000924537560364
 177    -0.00034715558947867
 178    -0.0062194278731289
 179    -0.0013037241347534
 180    -0.0013795515857657
 181    -4.2105021859147e-05
 182    -0.0015585442338497
 183     0.047689124734884
 184    0.0082080867600208
 185    -0.00068932738972522
 186    0.0035847635231965
 187    0.0039771566284916
 188     0.026330726320605
 189    0.0059036346695453
 190    0.0020890806211467
 191    -0.0030435467183856
 192    -0.00085208607906283
 193    -0.025395590212768
 194    -0.048232139353916
 195    -0.078597145491521
 196     -0.05126482704192
 197      0.17598881561696
 198     0.071598625507686
 199     0.045055819900416
 200     -0.12466215663215
 201    -0.053289833251937
 202    -0.0022919963503041
 203    0.0023620196490019
 204    0.00052286708764742
 205    -0.00073389689905429
 206    0.00075019087966541
 207    5.1805324612803e-05
 208    0.0049993043041032
 209    0.0005006489319077
 210    -0.0053195281984178
 211    -0.00096613471790753
 212     0.078634500368123
 213     0.019803020518892
 214    0.0074001513988837
 215    0.0034090224624115
 216    0.00083163310961873
 217     0.044653470748875
 218     0.014715131061861
 219    -0.003359833914458
 220    -0.002379321848451
 221    -0.0051594816634626
 222     0.015563192271172
 223      0.03716737362882
 224     0.027886236221266
 225     -0.11760459155767
 226     0.046567539895359
 227     0.038098867442339
 228     0.076978967173824
 229    -0.022498673967528
 230    -0.014240732211291
 231    -0.00096154837541341
 232    0.0033261548904292
 233    -2.2492858277247e-05
 234    -0.004710792762354
 235    0.0024893324360471
 236     0.056401463747485
 237    0.0080474899153535
 238    0.0031874236396795
 239    0.0044547858219973
 240    -0.0015630801122749
 241    0.0058006010415177
 242    0.0012856486870787
 243    0.0044859728689999
 244    -0.0016624864619212
 245    -0.00090219063156572
 246    -0.088550792496845
 247    -0.018526460917854
 248    -0.0052383938706796
 249    0.0012774663558035
 250    0.0051192828838664
 251    -0.015583767562569
 252    -0.010819577215084
 253    -0.024213928119936
 254    0.0024047954209619
 255     0.084592346553363
 256     0.018979741975465
 257    -0.00069528102128617
 258    -0.053450839325816
 259    -0.0046644822271847
 260    -0.0035019920637908
 261    -2.2363341163904e-05
 262    -0.0024680362844488
 263    9.0965650309219e-07
 264    -0.0006290558039011
 265    -0.050392332892488
 266    -0.0060233263531401
 267    -8.9405782690993e-05
 268    2.6029291866078e-05
 269    0.0047252942616498
 270     0.039307306190168
 271     0.012200448295877
 272    -0.0040401929098589
 273    -2.1069606597468e-05
 274    -0.00014875659818499
 275     0.035703432946538
 276      0.01010893933024
 277    0.0039087978394244
 278    -0.00019456572586071
 279    -0.0010261545482322
 280    0.0085207919328185
 281     0.026147204717246
 282     0.019909294552764
 283    0.0070912718848987
 284    0.00071050292599015
 285     0.065147637860509
 286    -0.010120820830674
 287    -0.0066534661036387
 288     -0.03672796219481
 289    -0.0017567351415645
 290    -0.00065146917053333
 291    -0.0021965563274028
 292    0.00091872468452475
 293    0.00040321342183198
 294    -0.039615240456954
 295    -0.009058190503873
 296    0.00029484353253281
 297    0.0026056995745114
 298    0.0020925382470216
 299     0.039459312409359
 300    0.0057202897716403
 301    -0.002363446359506
 302    -0.0035209178169893
 303    0.0010793635568618
 304    0.0020374929388043
 305    -0.0015723792451878
 306    0.00041372489246515
 307    0.00064575536330987
 308    -0.0019308901121493
 309    -0.0012269639274587
 310    0.0066929404305573
 311     0.056965573023314
 312     0.043898139367618
 313      0.18612221575879
 314    -0.073176165376942
 315    -0.022931259617623
 316     -0.11887262893086
 317     0.064880099266613
 318    0.0038539854571904
 319    0.0022090964192452
 320    -0.00043622302688773
 321    0.0038704621798893
 322    0.0016019252740773
 323      -0.1225821759642
 324    -0.026836949824958
 325    -0.0045294012742214
 326     0.010433410875465
 327    0.0048636758051247
 328     0.025293591860097
 329    0.0032581681886497
 330    -0.00046570543071022
 331    -0.0058464972869937
 332    0.0033493019713236
 333    -0.047980569572392
 334    -0.017209599007348
 335    0.0055486463136378
 336    -0.0055530449184397
 337    -0.0014074733879731
 338     0.024123884588758
 339     0.050502586895433
 340      0.08623776792831
 341    -0.053111873738014
 342      0.18425013819041
 343     0.070370349439428
 344     0.047673667976172
 345     -0.13161797992944
 346     -0.05402888618676
 347    0.0024835355618523
 348    -0.0025888170854795
 349    -0.00051258429339239
 350    0.00069656013403641
 351    -0.00088001521123899
 352    -0.082055957755956
 353    -0.020080322547344
 354    0.0076161227200528
 355    0.0035530521355151
 356    0.00086508973903428
 357    0.0025667097616068
 358    -0.0044810028717198
 359    0.00065341145020116
 360    -0.005478873180834
 361    -0.0012061188759738
 362    -0.047702197370903
 363    -0.014889299366872
 364    -0.0036623188258195
 365    -0.0024512486506322
 366    -0.005208642795121
 Sym= A
 Ene=              12
 Spin= Alpha
 Occup=    1.00000
   1    -0.032403866736016
   2     0.061716561238403
   3     -0.13837778724987
   4     0.042844208597558
   5    -0.013572159209864
   6    -0.050965577700336
   7      0.06946791335232
   8     0.038398822420231
   9      0.20787830036987
  10     -0.15160977186879
  11    -0.066287612750103
  12    -0.046643623034783
  13     0.016435612521934
  14    0.0054967079617112
  15    -0.0010484435188096
  16    -0.00034033256193343
  17     0.001099705499037
  18    -0.00018175764622635
  19    -0.00081158132016748
  20    0.00031941974870312
  21    0.0039218490107714
  22    -0.0032843521447049
  23    0.00053875339502455
  24    0.0046232727579737
  25    0.00071114230980195
  26    0.00071093537423268
  27    0.00076454432294511
  28    -0.0017416857620897
  29    -0.0031024858407698
  30    -8.3095133144256e-05
  31    -0.0018162045963029
  32      0.00426780486499
  33    -0.048670103751248
  34     0.095566580765462
  35    -0.0077116377057756
  36    -0.010226035509067
  37    -0.0072896476439656
  38    -0.071167694309212
  39    -0.028331073022938
  40    -0.062145191048649
  41      0.18507155963029
  42     0.080572304518829
  43     0.050109674164387
  44    -0.024869885594465
  45      0.00210896868797
  46    0.0006419466227084
  47    0.0025733289169451
  48    -0.0024304663318917
  49    0.0018729493674984
  50    0.0040658934713688
  51    0.00088538632827966
  52    0.0021692245424833
  53    -0.0020637589364819
  54    0.0003029997288083
  55    0.0033977036231009
  56    -0.00010852013780839
  57    -0.00031277239511959
  58    -0.0023223597337586
  59    0.0015481616851609
  60    0.0025803218819098
  61    -0.00045000155230758
  62    0.0026276444509893
  63      0.15372725249566
  64      0.11157864802363
  65     0.072670884301678
  66    -0.0016764065166959
  67    -0.001936750611034
  68    -0.0066286718567154
  69    -0.0032717214710937
  70    0.00048239728057517
  71    -0.0075359509382108
  72    -4.1917064759509e-06
  73    -0.00092117631351139
  74    0.0018355110115642
  75    -0.0011860315860851
  76    -0.0012624613635096
  77     0.032864548861012
  78    -0.013698684217208
  79     -0.03894516913715
  80    -0.042762148677246
  81    -0.094301347148659
  82    0.0022042631055313
  83     0.042200928913275
  84     0.053067926565981
  85    0.0015292408686907
  86    -0.0022099288738615
  87    -0.00062202538708104
  88    0.00033328120207409
  89    -0.002381747706352
  90    0.00097372744807725
  91    -0.0019680987427717
  92    0.00074540868403666
  93    0.0011619313109418
  94    0.0033775278986533
  95    -0.00030244003190175
  96    -0.018766959294204
  97    0.0017366552326112
  98    0.0009557290501877
  99    0.0027935928326041
 100    0.0018480952180982
 101     0.074828571619672
 102      0.02031048991512
 103    0.0004339859925059
 104    -0.0066753251979742
 105    0.00027432435865246
 106     0.058415364791329
 107     0.047724924306707
 108     0.016312551773991
 109     0.025035753359026
 110    -0.049442980736741
 111    -0.059091819148603
 112    -0.0079370053179492
 113     0.021591596087805
 114     0.035376022604999
 115    -0.0032274106589627
 116    -0.00055736067838713
 117    -0.0015834977188477
 118    0.00014489473579832
 119    -0.0013176205645956
 120     0.063914004396965
 121     0.011158015387747
 122    0.0053777978914988
 123    -0.0037351280559817
 124    0.0015621823956988
 125    -0.042840084247464
 126    -0.011619036234196
 127    -0.0019215940784603
 128    -0.00014937821021369
 129    -0.0025968807348739
 130     0.016570502540549
 131    0.0047298758459958
 132    -0.0033025379453416
 133    0.00090281101249694
 134    0.0022775537748703
 135    -0.091144617220637
 136     0.052708201785289
 137     0.015022438617793
 138    -0.0074567723245469
 139     -0.13230852814562
 140    -0.090443391166689
 141     0.010199635649852
 142     0.074220819853228
 143     0.045875208680973
 144    0.0042567143945016
 145     0.002272187380289
 146    -9.4034845432371e-05
 147    0.0065197976966594
 148    0.0010369583226029
 149     -0.10524167343369
 150    -0.021158129844685
 151    0.0015047389805274
 152    -0.0085469609592985
 153    0.00045121201615599
 154     0.053149791629276
 155    0.0085529149015712
 156    0.0063635266144768
 157    0.0048143832632973
 158    0.00022443784260976
 159     0.094807851937257
 160     0.017329935047971
 161    -0.0087019334777321
 162    0.0028410282270159
 163    -0.0045515400254926
 164      0.12639829472931
 165     0.097197462651804
 166     0.071066173249014
 167    -0.050154602308736
 168      -0.0994892589791
 169    -0.082660763704793
 170     0.056574330547684
 171     0.056285520121321
 172     0.052148494696192
 173    -0.0030516903578638
 174    -0.00019240188570621
 175    -0.0025575611695013
 176    0.00097496693896259
 177    -0.0019846599566003
 178     0.009339886366832
 179    -0.0054671831206082
 180    0.0012373126505584
 181    0.0050254822667656
 182     0.001643369137237
 183    -0.063884642712806
 184    -0.018524926154715
 185    0.00056384958331575
 186    -0.00044564096839215
 187    -0.0041880146963484
 188     0.066515309084498
 189    0.0081765523209899
 190    0.0064230847017781
 191    -0.0037667812525758
 192    0.0041905665518119
 193    -0.0025102515551446
 194    -0.037916040554263
 195    -0.0020823017544261
 196     0.045074416149991
 197     0.032816301020631
 198    -0.021995987269013
 199    -0.021157021495942
 200    -0.016619470752046
 201     0.013572639416069
 202    -0.0016974596506279
 203     0.001218648362043
 204    0.0012644190440039
 205    -0.00065064281772342
 206    0.00045942714247585
 207    -0.051657347996088
 208    -0.0088040453108804
 209    0.0012483064617197
 210    0.00062235070695117
 211    -0.0055969388884142
 212     0.025826971880809
 213    0.0053068616369045
 214    -2.4178462267164e-05
 215    0.0014199767576489
 216    0.0016005518094512
 217    -0.019805269346922
 218    -0.002328210801159
 219    0.0009026386030135
 220    -0.0029433036010934
 221    0.0020238137823002
 222    -0.065755712129119
 223     -0.16921464471087
 224    -0.097430537194543
 225     0.012002211938574
 226     0.072840364206474
 227     0.065703312565151
 228    -0.033556426133059
 229    -0.044857693607306
 230    -0.047343974138192
 231    5.4828738252232e-05
 232    0.0019093847643724
 233    -0.00026628427577849
 234    -0.0029487184644392
 235    0.00051943386275571
 236    0.0081415289409652
 237      0.01657466034377
 238    0.0011105734047679
 239    -0.003018719471363
 240    -0.002358078743298
 241    -0.023967127389355
 242    0.0069356713277029
 243    -0.00095702163395457
 244    -0.0014412572052169
 245    -0.0064228206538611
 246    -0.093969792745667
 247    -0.0043025891387938
 248    -0.010177205072358
 249     0.001189079973929
 250    0.0064574270422176
 251     -0.11529023213232
 252     0.080895543768577
 253     0.030381152050211
 254     -0.10842242651496
 255     0.038196527676365
 256     0.048811718131098
 257     0.050998691017745
 258    -0.0077957113394546
 259    -0.034738373736817
 260    -0.0025305032298895
 261    0.00042307257587893
 262    -0.0012322514324038
 263    -3.1973430778929e-05
 264    -0.0047082021189943
 265    -0.022799847991683
 266    -0.0070118775036649
 267    0.0042251793007167
 268    -0.00085208382322357
 269    0.00072836580055991
 270       0.1178156310826
 271     0.027271175908257
 272    -0.008369156463956
 273    0.0076275367485142
 274    -0.001533486560138
 275     -0.03218972493226
 276    -0.0082541319756132
 277    0.0012325931994272
 278    -0.004439904215278
 279    -0.00086329472204146
 280     0.073473347627507
 281      0.13495065246407
 282     0.093297282484682
 283     0.074298323855517
 284     0.034846852885454
 285     0.034555601062086
 286    -0.076076540891565
 287    -0.024999659577478
 288    -0.027016190966036
 289    -0.00045324008059896
 290    0.00029750106572529
 291    -0.00035615912787489
 292    0.00035805072561225
 293    0.00048638532110175
 294     0.007044784556372
 295    -0.0066824580098614
 296    -0.00079649574764573
 297    -0.0022257889402623
 298    -0.0024680806503321
 299     0.020226936652856
 300    -0.00083664340052807
 301    -0.002956884425393
 302    -0.0039342509151057
 303    0.0010321451675431
 304      0.02743283618088
 305    -0.0035128733423452
 306    -0.0043635176239515
 307    0.0029709181950082
 308    -0.0012044149589288
 309    -0.0040033675049051
 310     -0.10707182654709
 311    -0.044593570078896
 312     -0.11140191423012
 313      0.05146421480706
 314     0.020242152843219
 315     0.055162825293488
 316    -0.020972928467273
 317    -0.016417798329605
 318    0.00023061432591591
 319    -0.0036842812851158
 320    -0.00062641868049835
 321    0.0038897236349181
 322    0.00056103193214688
 323    -0.093296666883281
 324    -0.010264320429915
 325     0.001579356250316
 326     0.011050677099836
 327     0.002128059274361
 328    -0.071104634912202
 329    -0.0042846999864492
 330    -0.002350340368819
 331    -0.0043630634088632
 332    -0.0083621610900381
 333     0.059645472344767
 334     0.021652882697118
 335    -0.001732517558594
 336    -0.0028384849741106
 337    0.0024963574516769
 338    -0.036486199746401
 339    -0.048982537978334
 340    -0.020944652947226
 341     0.098956405090496
 342    -0.0016843692623509
 343     0.015301729697426
 344    -0.063142442400203
 345    0.0043136985229439
 346    -0.0083426860863209
 347    0.00026969341819455
 348    0.00025484108978488
 349    -0.0024619622328555
 350    0.0023779348204979
 351    -0.0041083675743432
 352    -0.067834011495936
 353    -0.0083890648886853
 354    0.0020338222013584
 355     0.006235305650992
 356     0.001740848990807
 357    0.0029730903050151
 358    0.0031901062154239
 359    -0.0029181073017916
 360    0.00015889666756904
 361    -0.00055547882231584
 362     0.051357331763973
 363     0.013991441172067
 364    0.0014137570187806
 365    -0.0025306048400832
 366    0.0023323547990069
 Sym= A
 Ene=              13
 Spin= Alpha
 Occup=    1.00000
   1    -0.013364368873261
   2     0.035215121604939
   3     -0.06575828022362
   4    -0.0093540827639507
   5    0.00073098927125333
   6    0.0026797688643992
   7     -0.10695811358217
   8    -0.0036802666766223
   9     0.023269112081629
  10      0.29704471062523
  11     0.017768512662519
  12    -0.028301545848509
  13    -0.019379696003679
  14    0.00041463561873076
  15    0.0022362824898533
  16     0.001676527286756
  17    -0.0028047897789487
  18    0.0028071590559026
  19     0.004307466882864
  20    0.00041610396631173
  21    -0.0015281070523742
  22    0.0016875345123293
  23    -0.00019298074942728
  24    -0.0014679028248469
  25    0.0013743364179776
  26    0.00043375720510143
  27    -0.0013530041577229
  28    -0.0019458927226773
  29    -0.00050769989130221
  30    -0.00081852617333926
  31    -0.0010407975697096
  32    -0.014887750672164
  33     0.042238391032963
  34     -0.10469079780464
  35      0.05929161544023
  36    -0.013649967297801
  37    -0.043604736990039
  38    -0.099449459982918
  39    -0.049667179582861
  40      0.15498126116252
  41      0.27191337750412
  42      0.10407772507215
  43    -0.0092061517852581
  44    -0.0015708958709647
  45    -0.023584734664292
  46    -0.0010487439338523
  47    0.0013508861001676
  48    -0.002390934721097
  49    -0.002462281433362
  50    -0.00028254780536519
  51    -0.0014431807024795
  52     0.004733515262966
  53    -0.004571656329462
  54    -0.00026778171838412
  55    0.0038810786639098
  56    0.00069890541326986
  57    0.0003457424691569
  58    0.0011902167093238
  59    0.0010998988189102
  60    0.00039250321960562
  61    -0.00082612342433787
  62    -0.00061236180060609
  63    -0.095069472006681
  64     0.045743008124948
  65      0.02364473043615
  66    -0.0089553623853768
  67    -0.003949084471687
  68     0.016340575670655
  69    -0.0043143947070922
  70    0.00020354139736224
  71     0.022006066791237
  72    -0.00013180324768602
  73    7.8680739726537e-06
  74    0.00071211621455527
  75    -0.00092685127813229
  76    -0.00026503479014318
  77     0.069254936284498
  78     0.048913382873314
  79    -0.015747774617618
  80     -0.10833964070869
  81    -0.068104573653501
  82     0.013517105495146
  83     0.069887156467116
  84     0.044150721545511
  85    -0.0022441904860484
  86    -0.0022494617406867
  87    -0.0017976610620841
  88    0.00063254467479966
  89    -0.00036055165949806
  90    0.00027464184655762
  91     0.071836140666646
  92     0.013477322006314
  93    -0.0049847443639999
  94    0.0054286646805638
  95     0.005639743966894
  96    0.0080611502189495
  97    0.0023151141947072
  98    0.0031995695973361
  99    0.0030440095152918
 100    -0.0035883175146445
 101     0.071431417930981
 102     0.015998684914025
 103    0.0035057284162247
 104    -0.0083206852867008
 105    -0.00012801903941189
 106     0.075384659745853
 107     0.045315140272182
 108    -0.011816251814584
 109      0.06926248377231
 110     -0.10764825047565
 111    0.0082600584426015
 112    -0.032956851852625
 113     0.064822407926413
 114    -0.011045058230588
 115    -0.0034263330568086
 116    -0.00016685722568244
 117    -0.001428483567056
 118    -0.00023152798961126
 119     -0.00350906592858
 120      0.11736084505189
 121     0.027003274157855
 122     0.009256118235617
 123    -0.0069316668347664
 124    -0.00096325873745658
 125      -0.0145766308867
 126    -0.0027513890711505
 127    -0.0025593613292002
 128    0.0032410051380579
 129    -0.00034948184259241
 130     0.011653021129621
 131    0.0041062151595225
 132    -0.0047855202941791
 133    0.0025304297969752
 134    -0.00015409579245022
 135    -0.081564981243876
 136     -0.13976455337057
 137    -0.028681355694422
 138      -0.0296158829908
 139    -0.0049148448281265
 140     0.097799120745642
 141      0.01669678839044
 142    0.0038080652879683
 143    -0.052853838494411
 144     -0.00131003425194
 145    0.0012695271752164
 146    0.00044320036584766
 147    -0.0027366308670093
 148    -0.00075920769587206
 149     -0.02536691870886
 150    7.1883761400173e-05
 151    0.0016603361921461
 152    -0.0053703836170762
 153    -0.004525040296844
 154     -0.10419836940671
 155    -0.016025954125956
 156    -0.012648232256341
 157     0.001139787357674
 158    0.0027523053867475
 159    -0.082077866629225
 160    -0.011355973007741
 161     0.010163924043867
 162    0.0020819975442625
 163     0.005630350346184
 164    -0.057530282492594
 165     -0.14385716780988
 166     -0.02344096567602
 167      -0.1230207900106
 168    -0.050436270094387
 169    -0.002745824454724
 170     0.073124381045437
 171     0.030000544165591
 172    0.0018829035745853
 173    0.00071284654792324
 174    0.0010071237107434
 175    0.0014638841388646
 176    -0.00022749863358008
 177    -0.0010410803513428
 178     -0.11161612912916
 179    -0.016575273495283
 180    -0.002746204896541
 181    -0.0093770523279381
 182     0.010754347784425
 183    -0.062551726423971
 184    -0.0063617407605856
 185     0.004131170589273
 186    -0.0037660845139968
 187    -0.0095142473514293
 188    -0.076205296260287
 189    -0.0091335053506176
 190    -0.0032150152532301
 191      0.01150373285161
 192    -0.0012781825221582
 193    -0.081268138157747
 194    -0.090432899448826
 195    -0.050932925053891
 196    -0.024207241464808
 197    -0.070231480497833
 198     0.094483131407244
 199     0.023530520929414
 200     0.029719994287419
 201    -0.061625973121332
 202    0.0039648276268608
 203    -0.0041628753483094
 204     -0.00190459720017
 205    0.0012770842212218
 206    0.0010928213019757
 207     0.063431146700458
 208      0.01597834998651
 209    -0.0022575901335471
 210    0.00090687547281803
 211    0.0028522416735545
 212    -0.065588335108762
 213    -0.0068326611686136
 214    -0.0052206086497486
 215    -0.0041162120204008
 216    -0.0051790711491953
 217    -0.077359312519184
 218    -0.0094161001062782
 219    0.0090170275191819
 220    -0.0023957673997075
 221    0.0024913452582228
 222      0.04472040893263
 223       0.0288546843488
 224    -0.0055046541746033
 225    -0.0032161383930194
 226     0.002034465628357
 227     0.027550869710509
 228    -0.0050608079874301
 229    -0.0034080799684661
 230    -0.014103446551869
 231    0.00040478722249542
 232    0.00062103870620523
 233    -0.00032412580197671
 234    -0.00067041435776263
 235    0.00030910444022718
 236     0.012665309303151
 237    -0.0022552778776738
 238    -0.00016357315946753
 239    0.0016565096663626
 240    -0.00095198069125634
 241     0.029001296332571
 242    0.0057773483804295
 243    0.0020173484985567
 244    -0.0013200841931294
 245     0.002789842646589
 246    -0.0072349678297235
 247    -0.0035298944246168
 248    -0.00041445019570327
 249    -3.6117421462856e-05
 250    -0.00056123609699236
 251    -0.060714130276821
 252    -0.088094338441929
 253    -0.048029399948077
 254     0.053415607450799
 255     -0.01647946901549
 256    -0.019246803684282
 257    -0.023565217538207
 258    0.00013065733287016
 259     0.024494969109594
 260    0.00099039635977167
 261    -0.00068809929344519
 262    0.00058037486587301
 263    -8.2933140988152e-05
 264    0.0027740210892808
 265    -0.011337482338903
 266    0.0026162790722897
 267    -0.0019611268465625
 268    0.0021304168599414
 269    0.0026324580631361
 270    -0.074692386612014
 271    -0.013429033759828
 272    0.0063160959296879
 273    -0.0053957091193307
 274    -0.00025348803244502
 275    0.0021469539556491
 276    0.0067792723447574
 277    -0.0026880346843558
 278    0.0003553659935689
 279    0.00029660512268779
 280    -0.049951867399882
 281    -0.050274361222871
 282      0.01382659473192
 283     0.070604622593724
 284     0.064902869035494
 285     0.050212818877609
 286    -0.051477523023401
 287    -0.037223215626135
 288    -0.029265226617302
 289    -0.0013676854025544
 290    0.00042818166874915
 291    -0.00077191198208952
 292    0.00078296463484512
 293    -0.0014533406770329
 294    -0.074039089901565
 295    -0.011520403611678
 296    -0.0020090662500858
 297    0.0026642252150367
 298    0.0084185312921193
 299    -0.048663356750692
 300    -0.0079766789978184
 301    0.00064968226162522
 302    0.0026414313607868
 303    -0.0067259057662916
 304    -0.012221128676082
 305    -0.00091096343362196
 306    -0.00018066357318099
 307    -0.0045921665967375
 308    -0.0017038378743443
 309    -0.067122983924151
 310     0.025227141995812
 311     0.041706717052352
 312    -0.029835405184306
 313       0.1486546908648
 314    -0.041764596445046
 315     0.016251279446347
 316    -0.090895375196863
 317     0.043012538171332
 318     0.002559516484558
 319    -0.00061049036462693
 320    -0.00050198601996114
 321    0.0044138953330806
 322    0.0011055625007688
 323     -0.10493836543631
 324    -0.021611844884298
 325    -0.0019348107605119
 326    0.0090797349575654
 327    0.0038901079844335
 328    0.0012873666592933
 329    -0.0018150987242722
 330    0.00074991329175844
 331    -0.0054697974620459
 332    0.0002042613982172
 333     0.021842690775498
 334    0.0020749389593002
 335    -0.00061543679852045
 336    -0.0058518647395375
 337    0.0013422408377482
 338    -0.012204574648808
 339    -0.042908445815665
 340    0.0023236542892873
 341    -0.034491971938708
 342    -0.0063078913947253
 343     0.088062908094076
 344     0.024989458355871
 345    0.00068063198234929
 346    -0.049208014979889
 347    -0.0022068851085663
 348    0.0020188770368471
 349    0.00094986669853015
 350    -5.8520494102468e-05
 351    -0.00097268871057008
 352    -0.010914291285137
 353    -0.0011672429095633
 354    0.0025637827228899
 355     0.002103691404266
 356    -0.0026742634384119
 357    -0.086363931542088
 358    -0.013859707417839
 359    -0.0043542018535269
 360    -0.0030023583498968
 361    0.0076164253093479
 362    0.0046011437899884
 363    0.0022665289326844
 364    0.00068152192285061
 365    0.00020941754721406
 366    -0.0030538653102424
 Sym= A
 Ene=              14
 Spin= Alpha
 Occup=    1.00000
   1    -0.010540884175103
   2     0.040420294041211
   3    -0.057608181070437
   4     0.042604112036823
   5    -0.0093100338522988
   6    -0.047025628538869
   7    -0.040705090345676
   8     0.018171839521958
   9       0.1534848752143
  10     0.073283823075658
  11    -0.095586302375796
  12     0.014124627340592
  13     0.020360140227801
  14    0.0031786219634785
  15    0.00073047345684054
  16    -0.00024290517532797
  17    -0.0021160234672859
  18    0.0012974047836326
  19    9.1407108075864e-05
  20    0.00041241122269035
  21    -0.00087841044923592
  22    -0.0031232523405567
  23     0.003092694742653
  24    -2.7961242493361e-05
  25    -0.0012842913122614
  26    -0.00079526528057495
  27    0.00024416162180364
  28    0.00027612427686246
  29    -9.9148490195842e-06
  30    0.00052459625875282
  31    0.0015156306969786
  32     0.017506483062483
  33    -0.064527339289779
  34      0.14801886410574
  35     0.030049069814143
  36    -0.011852537726327
  37     0.039989775264678
  38    -0.088179664118089
  39    -0.055814977007439
  40    -0.078608204089995
  41      0.22171899367948
  42       0.1253001185192
  43    -0.026074842535041
  44    -0.028763828285352
  45    -0.0017232784927315
  46    0.0017067882951727
  47    -0.0017898471767533
  48    -0.00051563237377575
  49    -0.0033541598790661
  50    -0.002124888541808
  51    0.0011078176542938
  52    0.0027852350839959
  53    -0.0056519861547021
  54    0.0026764885490311
  55    0.0043359363069566
  56    0.0024755573191338
  57    0.00050865878459356
  58    -0.0019783130159912
  59    -0.0019115088207488
  60    0.00080382169961088
  61    -0.0015518228622813
  62    -0.0018821350397276
  63      0.21046665758598
  64     0.091404396866521
  65     0.076886987951345
  66    -0.0078466863521698
  67    -0.0021490070746062
  68    0.00050963395070069
  69    -0.010302806520424
  70    0.0043323170450396
  71    0.0040936262930024
  72    -0.00030343075811742
  73    -0.0015247799924135
  74     0.001852859393249
  75    9.5060844181459e-05
  76    -0.0018523681570399
  77     0.016598287046868
  78      0.16541515908098
  79      0.09101389211398
  80      0.13431062067577
  81    -0.093708720095201
  82    -0.029059328950435
  83     -0.10161726288972
  84     0.035978113245567
  85    0.0062542432181773
  86    -0.001355593312894
  87    0.0037783311341094
  88    -0.00041404914157189
  89    -0.0057356364402587
  90    0.0027489399392389
  91    -0.067619951164849
  92    -0.021107293980083
  93    0.0020916641858535
  94    0.0013748113859807
  95    -0.0024767634996742
  96     0.031842570314489
  97    -0.0034130955972824
  98    -0.0049687331050458
  99    0.0056913617932503
 100    -0.0034270983625896
 101      0.13157401936795
 102     0.020467140278829
 103    -0.004595012494241
 104    -0.014086569196028
 105    0.0026010990943561
 106    -0.027175585203727
 107     0.091246381489388
 108     0.049931694054705
 109    -0.025913812557099
 110     0.005295616406288
 111    -0.057075487228178
 112     0.014157198561622
 113    -0.015800271315158
 114     0.043258871942521
 115    -0.00099039685059865
 116    -0.00015234882048207
 117    -0.0011343586375034
 118    0.00032616077169829
 119    0.00072983530900028
 120     0.014554420554187
 121    -0.0026479820944624
 122    0.0027192116538775
 123    -0.0014592595694554
 124    0.0010652366318854
 125    -0.012266861558291
 126    -0.005776324421135
 127    0.00061021645116238
 128    4.0020525980486e-06
 129    0.00046577244757335
 130     0.042047193463929
 131    0.0032928384333491
 132    -0.0043030048628404
 133    -0.0029291656713525
 134     0.002821753707883
 135      0.12690644370105
 136     0.048033068731973
 137     0.013101653350532
 138     0.025763038949459
 139      0.04108176044323
 140    -0.001747502381331
 141    -0.012707562852397
 142    -0.024369250281068
 143    0.00029258668014863
 144    -0.0013034819948961
 145    -0.001871644059118
 146    -0.00025057370894374
 147    -0.0012982059853348
 148    -2.880930321589e-05
 149     0.045536173262584
 150    0.0053117047182772
 151    -0.0018806637898573
 152    0.0050268847590365
 153     0.001899478852381
 154     0.034674361779913
 155    0.0034721802813957
 156    0.0040603650538874
 157    -0.0021126008273597
 158    -0.0017476296342046
 159    -0.005990593659647
 160     -0.00540168142071
 161    -0.0014152473229687
 162    -0.001388388494002
 163    -0.00015508177281865
 164    -0.072914793514925
 165    -0.016917263671053
 166    -0.040019452097649
 167      0.05237042791647
 168    -0.044768433949278
 169     0.094579301423972
 170    -0.044177590738234
 171      0.01979289723451
 172    -0.058086119185582
 173    7.8508685563695e-05
 174    0.0021592854297412
 175    0.0025466441370439
 176    -0.00011132248662114
 177    -0.003418609324825
 178    -0.062345718205526
 179    -0.0083629722868065
 180    -0.0049922201223148
 181    -0.0035811714629692
 182    0.0014993226025733
 183     0.041689624890326
 184    0.0088375177592877
 185    -0.0014940149943108
 186    0.0041425506008591
 187    0.0016983325783432
 188     0.056318812304242
 189     0.014353351094014
 190     0.003102375858843
 191    -0.0034538773843273
 192    -0.0020172563886982
 193      0.08022574243118
 194     0.077094220119501
 195     0.032846425622228
 196    -0.085896632255053
 197     -0.03566552908518
 198    -0.0051745947969293
 199     0.041810358500312
 200     0.023270689197274
 201    0.0073621061049102
 202    0.0011991093184877
 203    -0.00067032836585755
 204    -0.0018791298242321
 205    0.0011535021771774
 206    -0.0029327723973135
 207     0.058616237824866
 208    0.0065912011392601
 209    -0.00054243302723489
 210    -0.0014230556473641
 211    0.0078319079409119
 212    -0.040792691671134
 213    -0.012383453000855
 214    0.0012356435664291
 215    -0.0027019783486864
 216    -0.001564401749734
 217     0.067352084749504
 218    0.0076762083316688
 219    -0.0045346663508214
 220    0.0053914121354878
 221    -0.0046921034160779
 222    -0.011015128430535
 223      0.08945585229968
 224     0.082611250565039
 225     -0.11552971631126
 226    -0.049567003532282
 227    -0.0068101625351097
 228     0.091898423406388
 229     0.041465530358725
 230      0.01542181904732
 231    0.00084986926316397
 232    0.0017008527557406
 233    -0.00045698665003521
 234    2.9607802568683e-05
 235    0.00023982990817408
 236    -0.0086821660879465
 237    -0.012346568391094
 238    0.0031535743287229
 239    0.00027125604240916
 240    -0.00012743877117096
 241     0.014530218556195
 242    0.00043472699214575
 243    0.0039973227392419
 244    0.00053190032306312
 245    0.0015659749674606
 246    -0.028083671780706
 247    -0.012471765647457
 248    0.00026537920395293
 249    0.0017296009358039
 250    0.0019955800776391
 251      0.11882671936636
 252      0.14327092805551
 253     0.094008600130791
 254     0.062238073992374
 255    -0.066844061614533
 256     0.028986973745111
 257    -0.031441810596348
 258        0.059699880347
 259    -0.038950503304507
 260    0.0020561079733399
 261    -0.00014267736270437
 262    -3.4913158263204e-05
 263    -0.00024482712335742
 264    0.0026481632739687
 265     0.049851812941061
 266    0.00024277072251451
 267    -0.0024191106758405
 268    -0.0023853650338171
 269    -0.0068481148092846
 270    -0.025062560786683
 271    -0.016052495622716
 272    -0.0012720440096532
 273    8.3509214311871e-05
 274    0.00026323849680545
 275     0.058192301691141
 276    0.0036727509764415
 277    0.0057410018424003
 278    0.0068170077317182
 279    -0.0010671865486347
 280     0.019367245109836
 281     0.056855780038171
 282    -0.014257035730982
 283     -0.13644090985787
 284     0.038888028398203
 285     0.057375893363609
 286     0.083892855343567
 287    -0.013018267305205
 288    -0.031178931633601
 289    -0.0042132020567588
 290    -0.0012693511333096
 291    -0.0037304582190808
 292    0.00089535188083467
 293    -0.0021158940833795
 294    -0.040839457635692
 295    -0.0070561518978305
 296    0.0043723945513224
 297    1.9972085955989e-05
 298    0.0013426887624913
 299     0.069387735442168
 300     0.014664086981346
 301    0.00082336003957539
 302    -0.0087344502036584
 303    0.0042025763978937
 304      0.11352236568964
 305     0.026942134329459
 306    -0.004979354542465
 307     0.010115450092848
 308    -0.0038872255532835
 309    0.0032748681331639
 310    -0.067997301059567
 311    -0.034389735960872
 312     0.040565128693245
 313    0.0081516138212262
 314    0.0047680748104862
 315    -0.021061919100596
 316    0.0026419595287043
 317    -0.0072663462254443
 318    0.00049746120603155
 319    0.0012811175581015
 320    0.00013759014525996
 321    -0.00066142113942394
 322    0.00024526181382913
 323    -0.022419689476133
 324    0.0018325439057951
 325    -0.0020336890873732
 326    0.0032190965970198
 327    0.00094163338091483
 328    0.0052285661790595
 329    0.0061726006060242
 330    -0.0014830182454072
 331    -0.0011099408432288
 332    0.00028477324448104
 333    -0.048364269503298
 334    -0.002785200306761
 335    0.0049402793477854
 336    -0.00072640318799849
 337    -0.0031260637725428
 338     0.017156880253538
 339    -0.022314775157296
 340     0.011779524075981
 341     -0.10842341649009
 342    -0.032198035039712
 343     0.030311681987298
 344      0.06847123337717
 345     0.016124308015984
 346    -0.022857104151139
 347    -0.0025235959165217
 348    0.0017353751357734
 349    0.0034357884732347
 350    -0.0029650619527368
 351    0.0029032721284683
 352     0.061423954691373
 353     0.012183226615778
 354    -0.00093926255554686
 355    -0.0038804498540337
 356    -0.0024952719040823
 357    -0.069247836753118
 358    -0.0099225401024454
 359    -7.6885540557092e-05
 360    -0.0017416218742634
 361    0.0069373394904931
 362    -0.050636192474221
 363    -0.0080989931391687
 364    -0.0018905553482369
 365      0.00401597791648
 366    -0.0040337090038106
 Sym= A
 Ene=              15
 Spin= Alpha
 Occup=    1.00000
   1    -0.022160534054319
   2      0.10195496822911
   3     -0.16546012490898
   4     0.042285641081113
   5    -0.0075960361443655
   6     -0.10625147297792
   7    -0.048331220328405
   8    -0.0035591407426147
   9      0.31322867178169
  10      0.10760429239831
  11     0.010602670608044
  12    -0.042979655857728
  13    -0.032397500324113
  14    -0.011682237135262
  15    0.00052087961798924
  16    0.00059758440691008
  17    -0.0027770775386259
  18    -8.3296347631645e-05
  19     0.001078575102423
  20    0.00053153983936949
  21    0.0013985690050204
  22    -0.0010120103517025
  23    -0.0015296410106093
  24    0.0011201681645598
  25    0.0024647267966813
  26    0.0022223670171415
  27    -0.00042428262711405
  28    -0.0026106286976198
  29    -0.001719795289088
  30    -0.0025976405364825
  31    -0.0030652705124138
  32    -0.015394218290404
  33     0.077231173946384
  34     -0.22428826650528
  35     0.027201277544336
  36    -0.0029441308240255
  37     0.071715603727923
  38     0.089456575455264
  39     0.078828855846452
  40     -0.19964514342653
  41     -0.26027195516007
  42     -0.19801314045445
  43     0.039774415878663
  44      0.03681321909277
  45     0.017678681151993
  46    0.0013120550011334
  47    -0.0022937377866726
  48    0.00014982934780493
  49    -0.0022833316660173
  50    -0.0020563185066264
  51    0.00036719478163979
  52    -0.0016623957525413
  53    0.0040687293505538
  54    -0.0033739185182363
  55    -0.0026877366037806
  56    -0.0029056587663946
  57    -0.0026110744613592
  58    0.0001221402903651
  59    0.00080126100955158
  60    3.2638388293538e-05
  61    0.0031040371111585
  62    0.0030477960376442
  63    -0.035460059691679
  64    -0.040334271640296
  65    -0.048482220487162
  66    0.0041549228479508
  67    -0.0044982928316006
  68    -0.0053797367191633
  69    0.0074545311258226
  70    -0.0085843423658257
  71    -0.0092454553187857
  72    -8.6241674613733e-05
  73    0.0008326859391361
  74    -0.00074238785853542
  75    0.00032437406472156
  76    0.00097372472151865
  77     -0.20990357425103
  78     -0.14871022613858
  79    -0.097008792600892
  80    -0.016290901600769
  81    -0.041481883782992
  82    -0.079874348354937
  83     0.033972025464731
  84     0.036545609485945
  85     0.052991316369622
  86     0.001295521099055
  87    0.0023948611297355
  88    -0.00083401270797112
  89    -0.002196541071662
  90    0.00079502475984437
  91    -0.086514258456044
  92    -0.0057994462226661
  93    0.0096845365035465
  94     -0.00317281530158
  95    -0.0049003357973623
  96    0.0053500545640234
  97     0.014920634867128
  98    -0.00049475001668414
  99    0.00031687255413282
 100    0.0035997623362169
 101    -0.018213542015732
 102     0.012367269277798
 103    -0.00083727294892254
 104    0.0055194738799851
 105     0.002315708177969
 106    -0.094207682760199
 107    -0.069292743145812
 108    -0.024538127541549
 109    -0.096901489571746
 110      0.01381540505271
 111    -0.022741579016612
 112     0.058632399627917
 113    0.00058288075353106
 114     0.010454853850075
 115    -0.0009586267434515
 116    -0.001364375599863
 117    -0.00082967494115694
 118    0.00084740736745944
 119    0.0050905767831916
 120    -0.089131783672676
 121    -0.017078683503081
 122    -0.0062886792708624
 123    0.0067883982691712
 124    0.0014687776968488
 125    -0.042392004827196
 126    -0.0046148554132922
 127    0.0019737573403455
 128    -0.0037485602637944
 129    -0.0046492432978516
 130     0.037387420901253
 131     0.010867365758803
 132    0.00072673409225468
 133    -0.0021769288417935
 134    0.0012199624902833
 135      0.28747590852741
 136    -0.042933620946932
 137    0.0094911076411614
 138    -0.053892339923879
 139    -0.045484099566689
 140     0.056803652563808
 141     0.036321238513715
 142     0.031509461450145
 143     -0.03624294924067
 144    0.0010738243657223
 145    0.0028687517088696
 146    4.0686435416213e-05
 147    -0.00058270274532898
 148    3.6107941865959e-06
 149    -0.028016323988701
 150    -0.0056708546837652
 151    0.0016475028958115
 152    -0.0023984077596553
 153    -0.002681834868469
 154    -0.065116191131272
 155    -0.013386813218953
 156    -0.0057918913952208
 157    0.0015856940262087
 158    0.0016254541538851
 159    -0.0019903479088962
 160    0.00085003171652117
 161     0.002289051048877
 162    0.0016861064739442
 163    -0.0009000785885934
 164     -0.10446714129395
 165      0.04040158099434
 166     0.055670890685364
 167     -0.11226396748791
 168    -0.089352367410457
 169     -0.06712380952046
 170     0.088516693558021
 171     0.056283748417261
 172     0.043791744095935
 173    -0.0017475909085118
 174    0.00027590296680187
 175    -0.0012676877441042
 176    0.00064274529208088
 177    -0.0017808837920077
 178    -0.035659962259463
 179    -0.013734369622465
 180    0.00072353563854002
 181    -0.00064242003827687
 182    0.0055459257882517
 183    -0.067499069832568
 184     -0.01918412857647
 185    0.0027666467950761
 186    -0.0021095152283908
 187    -0.0064600569145683
 188    0.0075482122127007
 189    -0.0018623427269887
 190    0.0026783372360192
 191    0.0028153011350663
 192    0.0023536859825324
 193    0.0019425354548414
 194     0.036625485095696
 195     0.027355801901488
 196    -0.010697856096319
 197    -0.040289079146488
 198    -0.038979538913224
 199    0.0076072291153078
 200     0.032313084941756
 201     0.028319287966214
 202    0.00033458957152462
 203    -0.0002681853513068
 204    -0.0010133386694697
 205    0.00096003949408235
 206    -0.0021232342670464
 207    -0.0001913187995886
 208    -0.0019135401132865
 209    0.00010203236204631
 210    0.0010061304602381
 211    0.00065298585158541
 212    -0.025895671274944
 213    -0.0085378233493819
 214    -0.0012773273432616
 215    -0.00098973493619502
 216    0.00041028217457943
 217     0.020336308292085
 218    0.0011843729618353
 219    -0.0018065619676913
 220    0.0015987067734833
 221     0.000187870137741
 222    -0.057502054138163
 223     0.032669653031304
 224    -0.035357387173609
 225     0.096983093918524
 226     0.010453513758809
 227       0.1604177185669
 228    -0.069501284814865
 229    -0.018799940901544
 230    -0.096570129022935
 231    0.0038479107223711
 232    0.0045696361936268
 233    -0.0020953834767222
 234    -0.00052612211302018
 235    -0.00019908765515573
 236      0.01716261337101
 237    0.0071201637372503
 238    -0.0029109473316335
 239    0.0031055252860732
 240    -0.0050956501144006
 241      0.14614125962639
 242     0.032383577523368
 243    0.0030918303429808
 244    -0.0059530789318565
 245     0.012624688300192
 246    -0.013525952065052
 247    -0.0026350869197274
 248    -0.0031869039687815
 249    1.6608572098026e-05
 250    -0.0051418164779275
 251     0.070742209422975
 252     0.047479716998458
 253     0.014903504930416
 254     0.068634066756044
 255     0.052529046197597
 256    0.0077798209957554
 257    -0.043501420649412
 258    -0.033374696066876
 259    -0.0081595836389143
 260    -0.0025977188798276
 261    -0.0012478847291341
 262    -0.0014057773916009
 263    0.00043538928526885
 264    0.0036473803902143
 265    -0.012743448574556
 266    -0.0060243778266772
 267    -0.0020066303253691
 268    -0.0016037739799626
 269    0.00016471186468824
 270    -0.0017752542468518
 271    -0.0042079318193761
 272    -0.0026797255730077
 273    -0.0007610997369087
 274    0.00036631623940565
 275     0.085010964199448
 276     0.012874003895735
 277    0.0072595191961559
 278    0.0043192794920014
 279    -0.00030444289591639
 280    -0.0058156748481658
 281     0.036767892069606
 282     0.040665704790185
 283     0.053658577390136
 284      0.08723769435339
 285      0.11697463108979
 286    -0.047101796776469
 287     -0.05403171167644
 288    -0.071167947543033
 289    -0.0036562589371023
 290    -0.0010373208608386
 291    -0.003553203508115
 292    0.00066132771160297
 293    -0.0020699037095571
 294      -0.1022208341609
 295     -0.02504493515801
 296    -0.00099337030592432
 297    0.0035789525799581
 298    0.0084247612547225
 299    0.0073954179281593
 300    -0.0026533413297713
 301    -0.001765117984879
 302    -0.0031859145045253
 303    -0.0035811612071646
 304     0.035339214949975
 305    0.0013802145316256
 306    -0.003394980465202
 307    1.9725242335909e-06
 308    -0.0041279936898133
 309      0.10085452443222
 310    -0.037536339585238
 311    -0.012508978040035
 312     0.015976248094609
 313    0.0080216904050057
 314     -0.03223887045623
 315    -0.013243844592048
 316    -0.0058350707364266
 317     0.014294090121031
 318    0.0001210782468884
 319    0.0011783637784239
 320    0.00014640215808905
 321    -0.00058503578500185
 322    -0.00018368915951426
 323    -0.007953867536473
 324    -0.0015784650729838
 325    -0.00023925020557051
 326    0.0011158400642761
 327    0.0015721464071917
 328    -0.017882122184753
 329    -0.00025775613991116
 330    -0.0030235640940626
 331    -0.0011048971559611
 332    -0.00084776116299776
 333    -0.032717996779306
 334    -0.0051563103024503
 335    0.0037760483113278
 336    0.00019339558871343
 337    0.00022259764962609
 338    0.0052662731164049
 339     0.024705027281524
 340      0.01925007160749
 341    -0.049318188668217
 342     0.040308462477247
 343    -0.010668604621269
 344     0.024789999025637
 345    -0.028611890461007
 346    0.0015449737705852
 347    0.00092189908172377
 348    -0.0012641132837218
 349    7.5873804845333e-05
 350    -0.00020352093489026
 351    0.0011418345138597
 352    0.0096273021466527
 353    -0.0028808775241849
 354    0.00091851732856205
 355    -0.0024930072861772
 356    2.0735610549963e-05
 357     0.011791055992826
 358    -0.001154803421105
 359    0.0025192495370596
 360    -0.0007829855411167
 361    -0.00019861803325486
 362    -0.040941810161552
 363    -0.010774966983196
 364    -0.0024214541205139
 365    0.0018273749069203
 366    -0.0021151847793951
 Sym= A
 Ene=              16
 Spin= Alpha
 Occup=    1.00000
   1    -0.0031728428697089
   2     0.022584578925589
   3     0.015770920934222
   4     0.012652048323454
   5    -0.012580872321342
   6    -0.0083144372137633
   7     0.014965843380588
   8     0.020700359756387
   9     0.047135519439973
  10     -0.11041167828218
  11     -0.10265413510412
  12      0.02713854095726
  13     0.017852627452597
  14     0.014217155123934
  15    0.00029854978468476
  16    -0.0021855220559397
  17     0.001948648830968
  18    -0.0014700520440586
  19    -0.0025337175468181
  20    -0.00046611506995464
  21    0.00096920705669903
  22    -0.00048114868960126
  23    0.0013315282761101
  24    0.00074655918632247
  25    -0.0016589119059448
  26    9.7677267220481e-05
  27    -0.00023307002982942
  28    0.00091421324851482
  29    -0.00043590813978768
  30    0.0010475101943176
  31    0.0019631391640177
  32    -0.00041839461111448
  33     0.010136603746853
  34    -0.069133090135557
  35     0.067413391410829
  36    -0.0092512052176849
  37     0.029821086331548
  38    -0.080780623687506
  39      -0.0179321558397
  40    -0.039551242604863
  41      0.15834061776889
  42     0.011689652374398
  43    -0.019312165723427
  44    -0.0014815726777367
  45    0.0066780011728265
  46    -0.00011184041426731
  47    -0.0024162225379486
  48    0.0029714176404892
  49    -0.001999301107392
  50    -0.0036505542171847
  51    -0.00030060770171439
  52    -0.00092260573941413
  53    -0.0033180183509365
  54    0.0024185439374848
  55    -0.00051657714308641
  56    0.00081258832674024
  57    0.0010878378478599
  58    0.00036031341203192
  59    -0.0012629768823916
  60    -0.0018143349969671
  61    -0.0014350679518933
  62    -0.00097146278908994
  63     0.024007440837921
  64     0.017759153144667
  65    0.0072464427166134
  66    0.0018564430461862
  67    -0.0041893416681147
  68    -0.00021091348868828
  69    -0.00075110316283263
  70    -0.0061884244597853
  71    -0.0022950884921736
  72    -8.4984693159939e-05
  73    -0.00058183045616512
  74    0.00033486477393589
  75    0.00014367641415089
  76    -0.00074057028047753
  77     0.025134612258538
  78     0.040312289432693
  79     0.046647761978361
  80     0.090781727372654
  81     0.066409904299624
  82    -0.039324551249777
  83    -0.066098429965933
  84    -0.044465797409102
  85     0.010342058203303
  86    0.0026637110266015
  87    0.0024811274590826
  88    -0.0010403479935151
  89    0.00067121362462388
  90    1.3474106212595e-06
  91    -0.045455303894596
  92    -0.011958070454815
  93    0.0023259964397071
  94    -0.0034340167770302
  95    -0.0016653299476105
  96     0.045334995047537
  97    0.0080349625292363
  98    -0.0046887860602707
  99    -0.00080018230345689
 100    -0.0033801108444248
 101    -0.041969262456767
 102    -0.014299401503539
 103    -0.0024021606750364
 104    0.0032777530802222
 105    0.0011029577627597
 106    -0.069649954293634
 107    -0.033388749441119
 108    -0.0040278298859774
 109     -0.12348513452107
 110    -0.026171414074856
 111    -0.062446565185426
 112     0.066325690446141
 113      0.01076282953611
 114     0.036171462390767
 115    -0.0027758963941759
 116    -0.001436221597977
 117    -0.0018978057133789
 118    0.0011475291061062
 119     0.004781879453493
 120    -0.067182091051434
 121    -0.012170860607491
 122    -0.002324172695608
 123    0.0076517901182056
 124    0.0028803302696002
 125    -0.076554712829363
 126    -0.011159637538596
 127    0.0031351079086487
 128    -0.0037334886406933
 129    -0.0075732096176179
 130     0.082271138484145
 131     0.020314980050764
 132    -0.0043648993927449
 133    -0.0042044347560736
 134    0.0037117207519863
 135     0.067921783575706
 136     -0.03515333562922
 137    -0.0064199619106113
 138     -0.10050519626134
 139     0.020353179282938
 140     0.035388726428924
 141     0.051667091460216
 142    -0.010668611970606
 143    -0.024408545822144
 144    -0.00017692145107444
 145    0.0036564147941988
 146    0.00039108083576193
 147    -0.0032186901288895
 148    -5.2469794173775e-05
 149     0.023650766798276
 150    0.0066813235105146
 151    0.0030237163285751
 152    0.0017802290851744
 153    -0.00053163928792091
 154    -0.097433702486283
 155     -0.01581610671274
 156    -0.0075809547855539
 157    0.00020201063112418
 158    0.0051717432285029
 159     0.024268364909816
 160     0.011696104087055
 161    0.0014680681228169
 162    -0.00067748424718987
 163    -0.0037222589940717
 164     -0.14468108833836
 165    -0.092721495667851
 166     -0.06085057942591
 167     0.088274707534936
 168     -0.05846562962832
 169    -0.046397664357563
 170    -0.065931783375036
 171     0.023451770094248
 172     0.021005654531307
 173    -0.0031764920095947
 174    -0.00058890481578998
 175    -0.0029500918788197
 176    0.00073566334754656
 177    -0.0028222644586554
 178    -0.0083437029998634
 179    0.0051968745534212
 180    -0.0036566339516943
 181    0.0010497312032122
 182    0.0030931183968815
 183    -0.089446314794298
 184    -0.0081016254015839
 185    -0.0022347449954041
 186    -0.0039183636035626
 187    -0.0092309978694598
 188     0.048098664295919
 189     0.017885719489973
 190    0.00042134647205799
 191    -0.0011650908282794
 192    0.0028142160722591
 193    -0.065745396369564
 194     -0.12948077409581
 195    -0.034809325629237
 196      0.11533331474671
 197    -0.052150176802316
 198     0.051003018672649
 199    -0.067675724083092
 200     0.023243561025094
 201    -0.031584169600707
 202    0.0012985645903805
 203    -0.0022154678151374
 204    0.0024257841795964
 205    -0.0024252041957429
 206    0.0048654878129797
 207    -0.026927657241078
 208    0.0037394781917699
 209    -0.0015857844507863
 210    0.0041834606221449
 211    -0.0060577895197428
 212    -0.0051693620646913
 213    0.0060012354628298
 214    -0.0055968026981728
 215    -0.00062161171673589
 216    -0.002321042885713
 217      -0.1503426856733
 218    -0.020534414418802
 219     0.012194040389892
 220    -0.0072012303642461
 221    0.0086019219124407
 222     0.063449483774554
 223      0.14857704881441
 224     0.094921745533242
 225    -0.072892459622842
 226    -0.059663407180762
 227    0.0056696189245344
 228     0.070007589969507
 229      0.04660269873544
 230    0.0044572031722445
 231    0.0013559917947463
 232    0.0017744765463079
 233    -0.00022966738401408
 234    0.00070696233155833
 235    0.00013108900866002
 236    0.0025779553959339
 237    -0.0087694684244639
 238    0.0013032403470692
 239    0.0030383600626909
 240    -0.001107904902348
 241     0.052443838388205
 242    -0.0014479510963761
 243    0.0034828303701376
 244    -0.0014180431962752
 245     0.006550204893706
 246     0.013484214456181
 247    -0.006498550744935
 248    0.0041257129573474
 249    0.0009541275693633
 250    -0.0022519202652431
 251     0.024039602356506
 252    -0.0064602176108475
 253    0.0039556338714825
 254     -0.12382135697284
 255     0.023348994713264
 256     0.083410922080144
 257      0.06775207222983
 258    -0.010333938031091
 259    -0.046064454730379
 260    -0.0030191005505714
 261    0.0012743404253946
 262    -0.0014034726402142
 263    -0.0002298577978397
 264    -0.0067952233212535
 265    -0.066142478218934
 266    -0.010577388846358
 267    0.0043757072167073
 268    0.0032924770751096
 269    0.0050823628448592
 270     0.094945275558176
 271     0.015089830566324
 272    -0.0042539454712356
 273    0.0057542988790994
 274    -0.0023814861669481
 275    -0.076212962737436
 276    -0.017630792860233
 277    -0.0040226496297019
 278    -0.0066574282300047
 279    -0.0023537615873754
 280     0.079860716113364
 281     0.037308933303695
 282    -0.014000148809492
 283    -0.0074271192013381
 284     -0.08108482576934
 285    -0.068926063113631
 286     0.012846742361751
 287     0.047129651791887
 288     0.041826182232804
 289    0.0029935233685421
 290    0.00037668585011709
 291    0.0021410920295397
 292    -0.0003898685636977
 293    0.0023765634980137
 294     0.090717010294314
 295     0.013996589511395
 296    -0.00016652473856859
 297    -0.0031832521335058
 298    -0.0089207178620278
 299     0.024497727987501
 300    0.0059295944630399
 301    -0.001825989677568
 302    -6.9046649139937e-05
 303    0.0044820756742525
 304    -0.031502592111956
 305    -0.0042247045995641
 306    0.0019242626015507
 307    0.00056696454403878
 308    0.0028961952864148
 309     0.046438131161314
 310      0.14231813610254
 311      0.05793758860894
 312     -0.12797190750548
 313    -0.019405789986189
 314    -0.023268283871332
 315     0.068068792015746
 316    0.0043752278139484
 317     0.025599269477789
 318    -0.0018329355185991
 319    -0.0064772085988618
 320    -0.0014177309108468
 321    0.0012768792762549
 322    0.00033021925687802
 323     0.044407640965669
 324    -0.0029553687177033
 325    0.0057306017076651
 326    -0.0060949775949461
 327    -0.0014097653470845
 328     -0.04156677565485
 329    -0.015889931618239
 330    0.0021979701587382
 331    0.00032253056872745
 332    -0.001973451358901
 333      0.13487211836424
 334     0.023056857535472
 335     -0.01249096144156
 336    0.0014030371314818
 337    0.0077750527163712
 338     0.041790003207634
 339     0.025735271077741
 340      0.04709623017072
 341    0.0069891699056351
 342      0.14238148136142
 343    0.0057221351140234
 344    0.0052462832497185
 345    -0.093679271463546
 346    -0.011869041482391
 347    0.0029783737285466
 348    -0.0031252632099155
 349    -0.00097595195565994
 350    0.00090654430924412
 351    -0.0012672298316084
 352    -0.080803580649176
 353    -0.016326286267381
 354    0.0056280860965259
 355    0.0041617167460816
 356     0.003186445557283
 357     0.045996273437213
 358    0.0027739054172828
 359    0.0014593680618418
 360    -0.0026365047587224
 361    -0.0046649596886925
 362    -0.031407486791072
 363    -0.0093029616885559
 364    -0.003958782753763
 365    -0.0026933334461766
 366    -0.0018642247861765
 Sym= A
 Ene=              17
 Spin= Alpha
 Occup=    1.00000
   1     0.023578343366371
   2     -0.14421837559631
   3      0.27412929047456
   4    -0.042117437867117
   5    -0.0017228874974877
   6     0.060064637610561
   7     0.033004609614003
   8      0.05530850592181
   9     -0.12126847812537
  10    -0.016971347485564
  11     -0.12439314538964
  12     0.016865968491618
  13     0.030137843340457
  14     0.003741614583097
  15    0.00049532488640915
  16    -0.0013358229881333
  17    0.00066219400503226
  18    -0.00085335950717511
  19    -0.0015897098624436
  20    0.0010236688905971
  21    0.00028564768565481
  22    -0.0018834662659282
  23    0.0015985538973689
  24     0.001467115650292
  25    -0.00074096330891598
  26    -0.00097799115560975
  27    0.00094707838991587
  28    0.00087317720586542
  29    0.00043866938357796
  30    0.00044177393776049
  31    0.00081679589288859
  32    -0.027739568449397
  33     0.065116955473597
  34     -0.23420797720024
  35     0.089166627644195
  36    -0.0033699292570965
  37    -0.049775139927227
  38      0.15248813452805
  39      0.10601973967996
  40     0.059664318796567
  41     -0.38909167876846
  42      -0.2423763387896
  43    -0.014088238839873
  44     0.026463239824682
  45     0.047085107545274
  46    0.0011941403477217
  47    0.00051021996006563
  48    -0.0025067235931052
  49    -0.00010237566160645
  50    0.0010885825538832
  51    -0.00029690745413046
  52    -0.0026738836088752
  53    0.0038916751886264
  54    -1.7509291460405e-05
  55    -0.0029000399673355
  56    -0.0015566655842903
  57    -0.00075151672361657
  58    -0.00056898816342369
  59    -0.001451220285474
  60    -0.002407767240974
  61    0.0026480527040986
  62    0.00051439529849169
  63     0.019023698427614
  64    -0.0038753860376779
  65    -0.0026699803036819
  66    0.0022840554574026
  67    -0.0051261443633969
  68    -0.0036380822624813
  69    0.0019773196332398
  70    -0.013660008862788
  71    -0.012123092994298
  72    0.00023448243978389
  73    -0.00031555638010195
  74    6.4858250588692e-05
  75    0.00059989999182039
  76    -7.9253265842686e-06
  77      0.12514192919623
  78     -0.05284832149391
  79    -0.0060516317355453
  80     0.080489373087681
  81     -0.09650513620978
  82     0.025965343571087
  83    -0.045604426910194
  84     0.048896461585622
  85     -0.01500720620492
  86    -0.0028611556944375
  87    0.00066174641942857
  88    0.00044506181074291
  89    -0.0046443542420039
  90    0.0017475098642944
  91    -0.076031475067523
  92    -0.010240860823526
  93    0.0053279665469126
  94    6.6767081389718e-05
  95    -0.0067027533464752
  96    -0.070085268285205
  97    -0.0096613736768042
  98    -0.00021780386766759
  99    0.0012479358859991
 100    0.0080252834340184
 101     0.066978835331218
 102     0.014385096845461
 103    -0.0034563287406022
 104    -0.0042033005009725
 105    -0.00042420717161116
 106     0.033520177429638
 107    -0.025988058991471
 108     0.021909996367809
 109     0.035636004853018
 110     0.013493316433449
 111    -0.071331283532439
 112    -0.023856864039301
 113    -0.018127951890976
 114     0.046778471671193
 115    -0.00087040601138512
 116    0.00026238777063324
 117    -0.00070457623418709
 118    -0.0002437412317896
 119    -0.002039520516004
 120     0.011001865899541
 121    -0.0025372418396211
 122    -0.00052350573160537
 123    -0.00093224979591673
 124     0.002178805727134
 125    -0.049775108753767
 126    -0.006271189306503
 127    -0.0018881708822951
 128    -0.0032362936003884
 129    -0.0042364826224373
 130    -0.039774322530583
 131    -0.0040311095274175
 132    0.0035741549977023
 133    0.0025686098124572
 134    0.0022153657066711
 135     -0.12671210834265
 136     -0.12445207758258
 137    -0.062370279999849
 138     0.016378684305005
 139    -0.022272149100321
 140    -0.057000264762931
 141     -0.01162599857837
 142    -0.0013229524887825
 143     0.044687244857793
 144    0.00069976614789859
 145    -0.00045492506113281
 146    0.00014863072617595
 147    0.0020743440841859
 148    0.00024642732361867
 149     -0.07098706116606
 150    -0.0050563841284747
 151    0.0011356701799542
 152    -0.0094023429626076
 153    -0.00077864967824022
 154    -0.007733208961387
 155    0.0066662430557396
 156    -0.002677493483725
 157    0.0016715430162098
 158    0.0025439959633067
 159    -0.015233166677017
 160    0.0042794729393066
 161    0.0016061693684568
 162    0.0018143798085044
 163    0.0038405038686338
 164    -0.00043497430345386
 165    -0.068916772109054
 166    -0.026113403529111
 167     0.016901550539849
 168    -0.010769052422677
 169     0.052389546356369
 170     -0.01419722508987
 171    0.0032482831839522
 172    -0.031065780140834
 173    0.00045093802997878
 174    0.00093443049324478
 175    0.0017007076918919
 176    -0.00016991702248058
 177    -0.00074748359129049
 178    -0.049171239370812
 179    -0.0029112846742474
 180    -0.0034933013116497
 181    -0.0040248024167575
 182     0.002323935714315
 183     0.010838311748562
 184     0.006729537489896
 185    -0.00042790412351961
 186    0.00099820956996866
 187    -0.00092670298703612
 188    -0.0026048488095734
 189    0.0070428652037971
 190    -0.00025628346453697
 191    0.0012527491500971
 192    -0.0016359814048295
 193    -0.068153849697405
 194     -0.15132999376149
 195    -0.046166051201101
 196    -0.068709258515045
 197     -0.03356558358672
 198    -0.051056804620589
 199      0.03938022376196
 200     0.010915351770826
 201     0.024445214526625
 202    -0.00020228058135051
 203    0.00079959381587566
 204    -0.0019125596861183
 205    0.0014330180899625
 206    -0.0034461679142813
 207    -0.052670747380498
 208    -0.0022021047431891
 209    0.0058626777981908
 210    0.0042421694748341
 211    -0.0052253261493229
 212     -0.11342715149522
 213    -0.012385019400893
 214    -0.0072895090405432
 215    -0.011587002433417
 216     -0.00276082173612
 217    0.0044558225334395
 218    0.0093498277701994
 219    0.0034462955201573
 220    0.00090332802536987
 221    0.0025478033881028
 222     0.016784335499935
 223    -0.067494542901321
 224    -0.0015553758943849
 225     -0.10400164256457
 226     0.013797700455325
 227    -0.013136970967889
 228     0.063428027342207
 229    -0.010563511359343
 230    0.0031558335873495
 231    -0.00077910924366127
 232    0.0016382950834937
 233    0.00024964599702495
 234    -0.002450511562584
 235    0.00091296215736697
 236    -0.0086215916865283
 237    -0.0023430229016535
 238    0.0039832403652011
 239    -0.0032607628198246
 240    0.0010119558950891
 241    -0.055360226699001
 242    -0.010990630837019
 243    0.00031109180489738
 244    0.0025909404735015
 245    -0.0071550858101031
 246    -0.078757307171137
 247    -0.014495975719895
 248    -0.0051916408506556
 249    0.0028907094378952
 250    0.0072546755226853
 251     -0.01389881676988
 252     0.032258672145479
 253     0.037158262576449
 254     0.031514486603947
 255    -0.094813856385506
 256     0.057530450853999
 257    -0.017787782736804
 258     0.058544172716418
 259     -0.04889611619732
 260    0.0014255094134817
 261    2.4780251592997e-07
 262    4.3602044701127e-05
 263    -0.00023104460472943
 264    0.0016030856885746
 265    0.0066544712149214
 266    -0.0032947963682746
 267    -0.0010595059791062
 268    0.0028646550219341
 269    -0.0020021844874807
 270    -0.055955783000266
 271    -0.013560694449001
 272    0.0050784716789337
 273    -0.0013205493797983
 274    -0.0013907211476317
 275    -0.012734262974816
 276    -0.0074497145906617
 277    -0.0032378702876025
 278    0.0020741669807654
 279    -0.0013254399750728
 280     0.017662931390391
 281     0.066791492166088
 282    0.0096027787545668
 283    -0.003422083784993
 284     0.070373906808699
 285    -0.056488320691861
 286    0.0065029714242531
 287    -0.041403349903534
 288     0.026902720230821
 289    -0.00086895681231868
 290     0.001595607648705
 291    0.0014719599503284
 292    0.00063229851698718
 293    -0.0035099727884592
 294     0.038073901520695
 295    0.00054675035053493
 296    -0.00018954381980128
 297    -0.0047255506925918
 298    -0.0033075593067162
 299    -0.045097890607644
 300    -0.012446304567242
 301    0.0023401191466697
 302    0.0017081307332635
 303    -0.00051212026373614
 304     0.070525918807096
 305     0.009632602645107
 306    -0.0056460668715006
 307    0.0044392217823641
 308    0.0013396180187518
 309     -0.23210521097474
 310    -0.075481709226507
 311    -0.044399538241867
 312    -0.012919466633475
 313    -0.078411660272556
 314    -0.071661381361663
 315    0.0073376628898962
 316     0.044561584062216
 317     0.024030706616198
 318    -0.0027923404254517
 319    -0.0020478702784153
 320    9.4496851478033e-06
 321    -0.0036170657285891
 322    -0.0010367571445143
 323      0.04749598937487
 324     0.010105636830362
 325     0.001324435558979
 326    -0.0019398856663542
 327    0.0023363270853165
 328    -0.095427413393407
 329    -0.014290048303425
 330    -0.0087925117987852
 331    3.6578704286504e-05
 332    -0.0067344655196193
 333    -0.043991704165456
 334    -0.0042973124618262
 335    0.0071908281523407
 336    0.0028959245730299
 337    3.0974460647958e-06
 338    -0.032671860839128
 339    -0.028206501712816
 340    0.0064637268950075
 341    -0.033737920750798
 342      0.11634442271275
 343     0.056934184424167
 344     0.019769814992102
 345    -0.066442689535441
 346    -0.038204369662608
 347    0.00074724550850391
 348    -0.00037436081299884
 349    -0.00096854921454995
 350    0.00025951956969903
 351    -0.00073473456266857
 352    -0.072898146107876
 353    -0.016798095146701
 354    0.0074633874147063
 355    0.0048068430497129
 356    0.0014718041054835
 357    -0.025505299631551
 358    -0.0064134310242724
 359    -0.00029055930896293
 360    -0.0058897544367055
 361    0.0023689244600195
 362    -0.044877877456531
 363    -0.011511277180742
 364    -0.0046983597454414
 365    -0.0004234541712192
 366    -0.0055390175483137
 Sym= A
 Ene=              18
 Spin= Alpha
 Occup=    1.00000
   1    -0.0035794488183842
   2     0.051071682833956
   3    -0.081686958035578
   4     0.023856996633515
   5    -0.0013757790244814
   6     -0.03395550095616
   7    -0.029228549617049
   8     0.029850479714368
   9     0.035065136166257
  10     0.072509671932855
  11    -0.079555124319861
  12    -0.015780805028741
  13    -0.016637157316081
  14    -0.0009152880377861
  15    -0.00050775788924233
  16    -0.0041653921826589
  17    0.0070105104715154
  18    -0.0019914268892699
  19    -0.0048736608427092
  20    0.0025231330414816
  21    0.0017534813292025
  22    -0.002929341343197
  23    0.0017347160707824
  24     0.003582940004497
  25    -0.00085832701687373
  26    0.00032034076919432
  27    0.0015216799277859
  28    0.00011040142595485
  29    -0.00072788505258817
  30    0.00054824524647873
  31    -0.00062920008016399
  32    -0.003891906466173
  33     0.035290485121469
  34    -0.042241649118967
  35      0.03023942941541
  36    -0.010007566793052
  37    0.0088460742381569
  38     0.017611722724829
  39     0.048272736153822
  40     0.026125957182492
  41     -0.00868351219467
  42      -0.1332463371295
  43     0.012580574531145
  44    -0.0019435322484931
  45     0.024547159395437
  46    -0.00017377234136326
  47    0.0023872140834465
  48    -0.0026259984439109
  49     0.002051068298664
  50    0.0031432104109457
  51    8.122882516783e-05
  52    0.0009323274743454
  53    -0.0011184001462917
  54    -0.00033072403022816
  55    0.00094754993877101
  56    0.00052255597278325
  57    6.365342224908e-05
  58    -0.002603963584922
  59    -0.0011075378327718
  60    0.0002683828026358
  61    0.00024948438584149
  62    0.00049937943976156
  63      0.14352952800438
  64     0.065758455426067
  65     0.065492847498887
  66    0.0038408316310673
  67    -0.003611092139671
  68    -0.00099604788800901
  69    0.0068962815838409
  70    -0.0035039288145914
  71    -0.0074379754850438
  72    0.00013241948323768
  73    -0.0010700845320247
  74    0.0019766340040321
  75    -0.00054040913704977
  76    -0.0010313989472679
  77    -0.017571256651734
  78      0.05026631544205
  79     0.016288172189576
  80    -0.037694572326048
  81     0.082754339234434
  82     -0.10036384303601
  83     0.019538392399507
  84    -0.040756559067583
  85     0.053633981654707
  86    0.0049474563299728
  87    0.0029389161141204
  88    -0.0011821193382401
  89    0.0029058789179595
  90    -0.001574414597882
  91     0.012470457736878
  92    -0.0016962028674734
  93    -0.00054360359469842
  94    -0.0024064641499143
  95    0.0049362976198947
  96      0.11838561652744
  97     0.020333294062541
  98    -0.0023756325685471
  99    0.0015075115983475
 100    -0.011131669517093
 101    -0.057848773088947
 102    -0.016313667338676
 103    0.0012981463768374
 104    0.0035132487322789
 105    0.0036177252394137
 106     -0.11927546577889
 107    -0.011752590872297
 108     0.035729010141917
 109     0.041574499634028
 110      0.11937951256725
 111    -0.014142630910464
 112    -0.021756639256704
 113    -0.076439069518975
 114     0.022724600758685
 115    0.0036534155488357
 116    0.00078780447067139
 117    0.0019185814115514
 118    -0.00081253829671618
 119    -0.001060327672739
 120    -0.043454607094592
 121     -0.01172198323125
 122    -0.0062028545777331
 123    0.00037808668488327
 124    0.00088965408712051
 125     0.034618406711647
 126    0.0056375976941801
 127    -0.0010358081364276
 128    -0.0024413591224345
 129    0.0033757306577571
 130     -0.08517577850493
 131    -0.019023866133622
 132    0.0086100838372339
 133    0.0023614942437054
 134    -0.0015422252829685
 135     0.030137122561108
 136      0.12692995461887
 137    0.00090607223096159
 138     0.076082044187875
 139      0.12379729029358
 140    -0.031828633795825
 141    -0.043272659678482
 142    -0.077053889272485
 143     0.028017602631776
 144    -0.0025996006411803
 145    -0.0037013845951726
 146    -4.2286511879143e-05
 147    -0.0020093280642241
 148    -0.00061759210381879
 149      0.12062143378478
 150     0.018288273501139
 151    -0.0048544215755748
 152     0.013372501918643
 153    0.0044171235133242
 154     0.099012115621483
 155     0.011333996005028
 156      0.01007634153567
 157    -0.0055284804237656
 158    -0.0059587974154189
 159    -0.0062258900211344
 160    -0.0034374143504965
 161    -0.0033191165467627
 162    -0.004372000653707
 163    -0.00024551574187981
 164    -0.038003147445415
 165     0.060753875194445
 166     0.017786333255261
 167    0.0016053340734012
 168     0.026642804495246
 169     -0.10315419115326
 170    0.0050251024287097
 171    -0.010374436797266
 172     0.055731528075114
 173    -0.0014506127338805
 174    -0.0026683969149223
 175    -0.0037258250704103
 176    9.1253934156509e-05
 177    0.0025384815871743
 178     0.090745682292193
 179     0.019258026248133
 180    0.0051536735750863
 181    0.0068965076578257
 182    -0.0036366784364971
 183    -0.045129838495326
 184    -0.011549985789753
 185    -0.00012312118577971
 186    -0.0036371726298988
 187    -0.0011288827779592
 188    -0.0067186760889744
 189    -0.0051982135279124
 190    -0.00044085275624185
 191    -0.00047845384753526
 192     0.003762414811982
 193    -0.055657866421438
 194     -0.14704355293246
 195    -0.052247259432518
 196     0.067588221819121
 197    -0.00082158966572553
 198    -0.049178616712884
 199     -0.03018679188101
 200    -0.0061951365448706
 201     0.019642671283106
 202    -0.0018487948084364
 203    0.0015350968206853
 204    0.0010347880911939
 205    -0.0010559920601453
 206    0.0007612755496888
 207     -0.10237419801815
 208    -0.012379632965389
 209    0.0035037402258678
 210    0.0054385684308537
 211    -0.011573832941598
 212    -0.022610959112243
 213    0.0017963077671356
 214    -0.0056514836828414
 215    -0.0038342424408989
 216     0.000919850874122
 217    -0.066544664717312
 218    -0.0052432146857574
 219    0.0057851658537362
 220    -0.0049448994950676
 221    0.0072656287137901
 222     0.017033612262903
 223     0.014562812196753
 224    0.0066884673730479
 225    0.0049419508686269
 226    -0.0066234894229403
 227     0.034048410814212
 228    -0.0013507064567761
 229      0.00582164870221
 230    -0.020776986621064
 231    0.0011258623798331
 232    0.0015827759722439
 233    -0.00044464810762638
 234    0.00027148791111582
 235    -0.00019204977183382
 236    -0.00026588084785126
 237    0.00098953039860912
 238    -0.00023398631365342
 239    0.00064039199765016
 240    -0.001296155903603
 241     0.032021608554667
 242    0.0050693330914873
 243    0.00036117970293858
 244    -0.0017075426701173
 245    0.0027914070549719
 246    -0.007878099199834
 247    -0.003325350499812
 248    -0.00082134172242842
 249    0.00017782034854258
 250    -0.00088128860023743
 251      0.16497942317677
 252    -0.0067876233044795
 253     0.041338676719824
 254    -0.0079087869994674
 255     -0.16326785640292
 256    -0.0012625776021625
 257    0.0062386548712353
 258      0.10198182763262
 259    -0.014485514584119
 260    0.0056073091604488
 261    0.00028160649596081
 262    0.0023788119946283
 263    -0.00084614413998372
 264    0.0005233427364661
 265     0.064979104071969
 266    0.0096439067539937
 267    9.6235527383677e-05
 268    0.0014251574106523
 269    -0.0066730937110079
 270    -0.078789952678626
 271    -0.021431422704125
 272    0.0081355029676448
 273    -0.00088337030342031
 274    0.00038017068364223
 275    -0.077741461868981
 276    -0.018006989162732
 277    -0.0083777438322486
 278    -0.00057498175621916
 279    0.0015041855819174
 280    -0.046036268495244
 281     -0.11390491699935
 282    -0.031405004274212
 283     0.067337632888068
 284     0.075057476071113
 285     0.040194578970854
 286    -0.038405907879548
 287    -0.039518107576371
 288    -0.023314915164281
 289    -0.0015762748115774
 290    0.00010799899781471
 291    -0.00083919628347718
 292    0.00046397237501264
 293    -0.0015131685554165
 294    -0.090107298191578
 295    -0.010020644171159
 296    -0.0023653373997462
 297    0.0031835138983625
 298     0.010948636606862
 299    -0.076606225047928
 300    -0.0067764310997331
 301    0.0024453563777971
 302    0.0056459800798034
 303    -0.008985464300498
 304    -0.024577873146197
 305    0.0012324526997299
 306    0.00049027731162735
 307    -0.0070719990662086
 308    -0.00083583085007798
 309    -0.010660143816996
 310    -0.049498161758894
 311    -0.042561674322342
 312     -0.11432331997489
 313    -0.036314070373032
 314     0.011174485985188
 315     0.063220088005119
 316      0.02782354715353
 317    -0.020613157895372
 318    -0.0015228728950249
 319    -0.0051306605334683
 320    -0.00080859823003636
 321      0.00133248606759
 322    -6.9088353365627e-05
 323    -0.0065416660389292
 324    0.0064736147843864
 325    0.0035115332769455
 326    0.0017922518422593
 327    0.00062036872994056
 328    -0.079173233572231
 329    -0.010852370250479
 330    -0.0030688121051498
 331    -0.0010212948797493
 332    -0.0075464146203313
 333     0.072519091551342
 334     0.016733528786404
 335    -0.003673012722485
 336    0.0010468220902989
 337    0.0039414837767077
 338     -0.03200690355317
 339    -0.086491543337136
 340    -0.033516893058565
 341    -0.048205473357448
 342    -0.069298550867152
 343      0.12515373667936
 344     0.022784861726616
 345     0.046158488500826
 346    -0.068700239587361
 347    -0.0050712281739198
 348    0.0052878090974487
 349    0.0011885155469314
 350    -0.0007636945273955
 351    -0.00099049305438783
 352     0.014331325388404
 353    0.0058112802120501
 354    0.0018126665797808
 355    0.0016954974414261
 356    -0.0045796272787817
 357     -0.14796511752182
 358    -0.022152517605164
 359    -0.0060258951837476
 360    -0.0041624942911151
 361     0.013305899818995
 362     0.018022682799938
 363    0.0081785577886527
 364    0.0021244285581461
 365    0.0017598801020174
 366    -0.0041668569244419
 Sym= A
 Ene=              19
 Spin= Alpha
 Occup=    1.00000
   1    -0.010363451119998
   2    -0.032917834592368
   3      0.12787476475781
   4    -0.062256560325537
   5    0.00060928048723877
   6    -0.023446105842377
   7     0.027249248804485
   8      0.03482287501293
   9      0.18166020138814
  10    -0.068541764378849
  11    -0.086108392301963
  12    -0.017671257804986
  13     0.021238587856592
  14      0.03261270447351
  15    -0.0020094483298142
  16    -0.0023449358240367
  17    0.0034438017222466
  18    0.0003532161614327
  19    -0.0035400760708239
  20    -0.0015027045179631
  21    -0.000155553281569
  22    -0.00060089661172141
  23    0.0020351943938552
  24    -0.0013479726141964
  25    -0.00035402152098559
  26    0.00029999290327284
  27     8.87171476579e-05
  28    0.00049530122907445
  29    -0.00053501939509693
  30    0.0010371640143546
  31    -0.00038168803591774
  32    -0.013342256431633
  33    0.0031203865255041
  34     0.019063255419093
  35    0.0053087552312626
  36    0.0023172816062702
  37    -0.099117046410405
  38     0.053380517398156
  39    -0.028329321691601
  40      0.28313389055512
  41     -0.16470460427294
  42     0.054666956537168
  43    -0.023523842630033
  44     0.016348664628736
  45    -0.0011320994601352
  46    0.0021239762063268
  47    0.0020785169827121
  48    -0.0024345431066916
  49    -5.7493490624782e-06
  50    0.0042646315000962
  51    0.00024548081802606
  52    -0.002637925913372
  53    0.0062775125788799
  54    -0.0026153186468647
  55    -0.003986587890964
  56    -0.0015341046538585
  57    -0.00035865081165578
  58    7.8888335821761e-05
  59    -0.0020990405890873
  60    -0.0019828121325258
  61    0.00087641345632347
  62    0.00039978067141536
  63    -0.0055471612915876
  64    -0.052249564633374
  65    -0.053761134459158
  66    -0.0039922726155664
  67    -0.010726941277974
  68    -0.013962211194205
  69    -4.6467262065981e-05
  70    -0.013638060654292
  71    -0.017037067779983
  72    0.00070551717083664
  73    0.0005571808270618
  74    -0.0013691951479685
  75    0.00044599290725561
  76    0.0011848148611589
  77      0.11893128149111
  78     0.047150015401185
  79     0.016991143251446
  80     0.016367029062329
  81    0.0077103292550323
  82     -0.17190736643762
  83    -0.010527450178798
  84    -0.0091566479829847
  85     0.089353025378342
  86    0.0052170781371011
  87    0.0060145025466845
  88    -0.0021935197090051
  89    -0.0010140567748504
  90    0.00039891835507968
  91     -0.07319329648336
  92    -0.014141241258399
  93    0.0062159860917359
  94    -0.0024784214089856
  95    0.0013817630773697
  96      0.14915177554174
  97      0.02779797953386
  98    -0.0063259057165302
  99    0.0054226527584485
 100    -0.012082344175913
 101    0.0060567240918522
 102     0.002541808677501
 103    -0.00074075829111214
 104    -0.0024567398223599
 105    0.0063381378704965
 106     -0.12091748576877
 107    -0.098347641668236
 108     -0.03191945500473
 109     0.020168786735447
 110    -0.092692478971755
 111    -0.079750046746151
 112    -0.0046881572400229
 113     0.049666892323766
 114     0.038612395465701
 115    -0.0049478402951761
 116    -0.00074799373045319
 117    -0.0018745733974065
 118    0.00046598263856447
 119    -0.0020021512853172
 120     0.037525564202585
 121     0.018590898319637
 122    0.0017423343919942
 123    0.0010109923662828
 124    0.0033143988651421
 125     -0.12244521565437
 126    -0.017133161760654
 127    -0.0027194796524399
 128    -0.004372227573208
 129      -0.0126569713913
 130     -0.01331796998329
 131    0.0013316591964194
 132    0.0016835154012209
 133    0.0050280580619169
 134    0.0027993877469323
 135     -0.14448973009579
 136     0.020093177673658
 137    -0.026331572463092
 138     0.049904341364658
 139    -0.049773813790969
 140     -0.11470586121167
 141    -0.025068867502381
 142     0.017881560282584
 143     0.067693643235224
 144    0.0017132619345916
 145    -0.0010572247382431
 146    -7.8028705194144e-05
 147    0.0051141476340407
 148     0.001011152783096
 149     -0.06270511718562
 150    -0.010715935201399
 151    -0.001023524074576
 152    -0.0058852688654684
 153     0.002314803623581
 154     0.087348615245164
 155     0.024205717640478
 156    0.0083504084634616
 157    0.0016194492384919
 158    -0.0014294464608046
 159        0.050445489986
 160     0.015825043049419
 161    -0.0062076013852092
 162    0.0018051706042767
 163    -0.0013055741812723
 164     0.067760512234334
 165     -0.11702762747162
 166     -0.04936453448509
 167     0.018676895952118
 168     0.087829432250799
 169    -0.071197159402157
 170    -0.021642289300418
 171    -0.053917547266208
 172     0.030692836554481
 173    0.00090147476431497
 174    -0.0027649323932682
 175    -0.002078859989278
 176    -0.00078969196483019
 177    0.0042357865777643
 178     0.054468365242843
 179     0.017451391842541
 180    0.0025332862806895
 181    0.0012970436858164
 182    -0.00058402738043661
 183    -0.053293128466115
 184    -0.0042744193295516
 185    -0.00051023632287305
 186    -0.0066879445502959
 187    -0.0045825099245133
 188    -0.090418616063471
 189    -0.012522428575698
 190    -0.0074172912242878
 191    0.0063692001088723
 192    0.0010456788451021
 193    -0.0098059819429734
 194    -0.036548372204636
 195    -0.013453157716755
 196    -0.074980332708221
 197     0.017284966758128
 198     0.020318793598702
 199     0.043634378526013
 200    -0.0097545899375748
 201    -0.017005111603226
 202    0.00067811637204259
 203    -0.00043224854156071
 204    -0.0012855869990331
 205    0.0010269546902457
 206    -0.0017933333810019
 207      0.01906495981571
 208    0.0048778473435338
 209    0.0016954961599962
 210    -0.0014915376594115
 211    0.0017275634612926
 212    -0.034984780992551
 213    -0.0026059265191312
 214    0.00027689325256768
 215    -0.0040742615675342
 216    -0.0016091735679252
 217     0.031558763554199
 218    0.0096229912179563
 219    -0.00092515911171455
 220    0.0013109915204196
 221    -0.0026601627860542
 222     0.030262227794248
 223    0.0045424741213983
 224    -0.014767911188071
 225     0.070139985585815
 226     -0.11456113487641
 227     0.017509488067408
 228    -0.041131477000085
 229     0.056606347888033
 230    -0.0094461455053956
 231    0.0035600856753456
 232    -0.00021436384200722
 233    -0.001148875812856
 234    0.0052527672924991
 235    -0.0020578758064886
 236    -0.095604106123206
 237     -0.01644952015963
 238    -0.0025228371859616
 239    -0.0072405281636064
 240    -0.00045910665653248
 241     0.061589924646653
 242      0.01307125638123
 243    -7.0413223081912e-06
 244    0.0020290508019444
 245    0.0066696450847747
 246     0.060099677666649
 247    0.0097455910019425
 248    0.0038607639327057
 249    0.0020494690239977
 250    -0.0055367337911751
 251     0.018279568551402
 252    -0.0086707772915455
 253     0.026508754411038
 254     0.012244545107955
 255     0.034251913390715
 256     0.094917485637658
 257    -0.0050406076288602
 258     -0.01184342057201
 259    -0.064649520454106
 260    -0.003876123783955
 261    -0.00052282996699738
 262    -0.0023624443718923
 263    0.00034366385460241
 264    0.00013499566456075
 265    -0.082543006528387
 266     -0.01897383289703
 267    -0.00050154775635633
 268     0.003421566115493
 269    0.0070825357572286
 270      0.01097843210788
 271    0.0041056893164219
 272    -0.0012091003907288
 273    -0.0013489406054826
 274    -0.0033990318754373
 275     0.020331249587603
 276    0.0016768252457412
 277    0.0013128647409718
 278    -8.164669114175e-05
 279    -0.0026081145806271
 280    -0.050213372555438
 281     0.012175229407081
 282     0.017665033258174
 283    0.0073565575712252
 284    -0.056243412657533
 285     0.094621337999356
 286    -0.012730354234064
 287     0.028044503020947
 288    -0.056467757248008
 289    -0.0011112339657329
 290    -0.0025759623116219
 291    -0.0033346437621096
 292    -9.5256519549593e-05
 293    0.0037021285058985
 294    -0.045547424681112
 295    -0.011140056599629
 296    -0.00013248229815708
 297    0.0049294752284039
 298    0.0020114172404902
 299     0.080715112936056
 300     0.012618145840419
 301    -0.003927996298303
 302    -0.0047895065459859
 303    0.0029940863148636
 304    -0.040526445590873
 305    -0.001716952475133
 306     0.003052047016474
 307    -0.0018778883803564
 308    -0.0031176045948519
 309    -0.065731751153132
 310    0.00088877767068149
 311    -0.035490394973925
 312     0.042878926358746
 313     0.043488582194822
 314     0.098314854440728
 315    -0.017257219114029
 316    -0.019383448648779
 317    -0.066117232309286
 318    0.0029703675126066
 319     0.003187030766524
 320    0.00044436473511372
 321    0.0032510503551999
 322     0.001057077186827
 323    -0.045278782015747
 324    -0.0075302858340906
 325    -0.0028874409676147
 326    0.0035997065091514
 327    -0.0020303584005269
 328      0.09086463285728
 329     0.021159847983688
 330    0.0054996853356703
 331    0.00079441843310819
 332     0.005449833390977
 333    0.00039963278714509
 334    0.0058943233293574
 335    -0.0015503113291359
 336    -0.0018934269355604
 337    -0.002936933361859
 338     0.059776874552694
 339      0.13719340889757
 340     0.055814609101844
 341    -0.061744001359101
 342    -0.037612038857521
 343     -0.00036204671633
 344     0.042853991678957
 345    0.0092162772707878
 346    -0.0031324623882663
 347    -0.0016078329473717
 348    0.00092143542080091
 349    0.0017137160034084
 350    -0.0013749496506649
 351    0.0022497546371484
 352      0.09767766629086
 353     0.010713022391338
 354    -0.0063262142178311
 355    -0.0092295070816742
 356    -0.0038457193722167
 357     0.012388528869247
 358    -0.0070986341181697
 359    0.0027161335258415
 360     0.002873362427868
 361    -0.0028513407234634
 362     0.019199646972368
 363    -0.004296224815015
 364    0.0048726904034411
 365    -7.1872373983298e-05
 366    0.0025638702852016
 Sym= A
 Ene=              20
 Spin= Alpha
 Occup=    1.00000
   1     0.030950595851813
   2    -0.082511827961052
   3      0.17912392381494
   4    -0.081545057525942
   5     0.008952018599418
   6    -0.026178253668675
   7     0.073315512320672
   8     0.029550978912802
   9     0.052177575375548
  10     -0.21072567386961
  11     -0.13176092204442
  12    -0.010970424979913
  13     0.032086515760349
  14      0.04539168546277
  15    0.00024563038936456
  16    -0.0027330019095858
  17    0.0010289715554946
  18    -0.0024767637019478
  19    -0.0037894664876691
  20    0.00018509133133779
  21    0.0056265508945977
  22    -0.0072426830416097
  23    0.0012586000432779
  24    0.0059529227445511
  25    -0.0024034616126877
  26    -0.0002799929595821
  27    0.0002290091559867
  28    -0.0030387853256393
  29    -0.0042045198165171
  30    0.0020680027623568
  31    0.00033564676253821
  32    0.0092647548909906
  33    -0.018929848538415
  34     0.084097037119171
  35    -0.028946391928782
  36    0.0024316948188448
  37     0.014305072956306
  38     0.058384524911373
  39    -0.0068651554481808
  40    -0.037631518855447
  41     -0.17717603666196
  42     0.028192377775087
  43     0.031219452813285
  44    0.0077905957577276
  45    -0.028667335960769
  46    0.0014290550519838
  47     0.005801120188713
  48    -0.0079261623415467
  49    0.0031519014138072
  50    0.0079948567405136
  51    4.2078393086672e-06
  52    0.0007799860463168
  53    -0.00099206682027645
  54    -0.0006322226908345
  55    0.00052184354032396
  56    0.00032144111844876
  57    0.00016980707773649
  58    0.0017207762886285
  59    0.0035472278765836
  60     0.001694195394808
  61    -0.00028109560826607
  62    0.00012594694295407
  63     0.082375895692108
  64      0.13005205966909
  65      0.12086996669015
  66    0.0028672158937404
  67     -0.01004255080262
  68    -0.0087965054361385
  69    0.0016495051624699
  70      -0.0222177301728
  71    -0.014570302221178
  72    -0.00069480721488303
  73    -0.0011740915945579
  74    0.0025546926165677
  75    -0.0011889372039445
  76    -0.001908693902573
  77     0.031650111533817
  78     0.093268057313513
  79    -0.0079995470569566
  80    -0.057590096769596
  81    -0.095108047131211
  82     -0.10812681161644
  83     0.045798149685202
  84     0.053069358071286
  85     0.059528968821187
  86    0.00082431751529697
  87    0.0024170706259908
  88    -0.0011295280793112
  89    -0.0032658096605487
  90    0.0010126599354288
  91    -0.011147299675608
  92    -0.0027219480853751
  93    0.0015525198285304
  94    0.0035365458794279
  95    0.0039176429244307
  96      0.10192834741597
  97     0.018567389210484
  98    -0.0030002770656705
  99    0.0074575538368089
 100    -0.010079322639004
 101      0.10592029105547
 102     0.020716793506854
 103     0.001228368077466
 104     -0.01207883369931
 105    0.0045322235380588
 106    -0.050303359536083
 107     0.047263201128897
 108    -0.014349311808106
 109     -0.15285326932103
 110    -0.040149037828864
 111      0.12918953011985
 112     0.082382504866352
 113     0.026422957610079
 114     -0.08367599023475
 115     0.002031671684664
 116    -0.001530745528514
 117    0.00089909337907611
 118    0.0013894031463782
 119    0.0080908800621794
 120    -0.068708477274467
 121    -0.011894369802111
 122    0.0006675613077406
 123    0.0056284801228556
 124    -0.0034419116195745
 125     0.074459705748723
 126     0.014015679887593
 127    0.0061105856122243
 128    0.0063562537652608
 129    0.0054928839144038
 130      0.14431957970353
 131     0.028288363483151
 132    -0.011887706173674
 133    -0.0086524142666488
 134    -0.0019331209985777
 135     0.092493615384771
 136    -0.010583409420109
 137      0.01674921522585
 138    -0.054702769330572
 139    -0.015444376132658
 140     0.012810963798387
 141      0.03036966056945
 142    0.0072298827233225
 143    -0.017186714477974
 144    0.00021068275800946
 145    0.0027810441624946
 146    0.00037380057642492
 147    -0.0011536816630662
 148    -0.00027197405792054
 149    -0.0069032601652357
 150    0.00098225008244908
 151    0.0020108726870072
 152    -0.00062421355927306
 153    -0.00042185916927957
 154    -0.046009591107356
 155    -0.012993990205629
 156    -0.0028644800427251
 157    0.0012600982477743
 158    0.0021599513934161
 159     0.026125778866329
 160    0.0055371338216877
 161    -0.00057373704385094
 162    0.00052835602866585
 163    -0.0025917719132911
 164      -0.1588051649177
 165    -0.014842052031765
 166    0.0087541702419195
 167    -0.0007767097100179
 168     0.002051874752595
 169     0.039898326972518
 170    0.0062712995863065
 171    -0.00073522136436792
 172     -0.02371089037714
 173    0.0014652917013509
 174    0.0011214651318881
 175    0.0020243410960188
 176    -0.00073493169962331
 177    -0.0006813858828461
 178    -0.029057332406325
 179     -0.00401080296608
 180    -0.0014704672212813
 181    -0.0022459757373143
 182    0.0010378696052984
 183      0.02276197734487
 184    0.0059509604088441
 185    -0.00055981512598003
 186    0.0011261377770167
 187    0.00058636055347627
 188    -0.005594723689418
 189    -0.0014368619665359
 190    -0.00081274900719937
 191    0.00072336794415025
 192    -0.0008407694425027
 193    -0.046222493891643
 194     -0.15657505931652
 195     -0.10257986365158
 196     -0.15956625375558
 197     0.095242192535211
 198    -0.016594043608467
 199      0.10105996749482
 200    -0.078998219624301
 201    -0.0095456844960928
 202    -0.00073305593059918
 203    0.0019923526186378
 204    -0.0027462016672586
 205    0.0024236814980756
 206    -0.0046767668906319
 207     -0.03633349985974
 208    0.0061086378332371
 209    0.0074977842858954
 210    -0.00062378944506215
 211    -0.0035983221257646
 212    -0.078340378109401
 213    -0.0042164503160892
 214    -0.0013320254725576
 215    -0.010723279380281
 216    -0.0016274313355596
 217     0.086765726925676
 218     0.028349482237642
 219    -0.0031416505622603
 220    0.0025631500001326
 221    -0.0034145277180253
 222    -0.022865957910996
 223    -0.011392322719975
 224    -0.023234690534409
 225     0.046349425102643
 226      0.11138919580577
 227    -0.053050048694705
 228    -0.035453344447952
 229    -0.065563125549258
 230     0.027645005661884
 231    -0.0043641746231067
 232    -0.0029156942149173
 233    0.0015710288667243
 234    -0.0023532155026745
 235    0.0011201647261108
 236     0.085002272647808
 237     0.020176475992203
 238    -0.0012656845883624
 239     0.007263400340423
 240    0.0017756106554391
 241    -0.064977194073597
 242    -0.011495382338773
 243    -0.0037069648332116
 244    -0.001221102888806
 245    -0.0048573803803418
 246     0.027132155934171
 247    0.0082917846563604
 248    0.0012989676508454
 249    -0.0044869527948841
 250    -0.00062074767072947
 251    -0.057995237495967
 252     -0.10092063925012
 253    -0.064538949055475
 254    -0.061674146672693
 255    -0.034533689877205
 256     -0.10765643443011
 257     0.031702893793586
 258    0.0059912266041508
 259      0.07652645876339
 260    0.0044113111911493
 261    0.00077446713796214
 262    0.0025675585980603
 263    -0.00049887907476717
 264    -0.0021673919740204
 265     0.059754783436893
 266     0.018399544218202
 267    0.0020661663944754
 268    -0.0013383647915683
 269    -0.0029939502456815
 270    -0.015365458286274
 271    0.0056279072354941
 272    0.0043944733451651
 273    0.00057721482474427
 274    0.0028408157438949
 275    -0.088945868177689
 276    -0.0092877460529076
 277    -0.0080648455533962
 278    -0.0052278620142465
 279    0.0039575354275024
 280      0.02602656921794
 281    -0.010790450522701
 282    0.0049911495746819
 283     0.025052527514485
 284     0.018842157459258
 285     0.031923500860582
 286    -0.021941930427962
 287    -0.011898716763553
 288    -0.015968605271546
 289    -0.00043790774474147
 290    -3.6394630810448e-05
 291    -0.00065251055490383
 292    -4.9928675530413e-05
 293    -3.1918777095528e-05
 294    -0.031958678509553
 295    -0.0060667396211998
 296    -0.00022892161832966
 297    0.0016380996627717
 298    0.0030052520239484
 299    -0.0036328318035024
 300    -0.0025181450336807
 301    -0.00045420203572217
 302    -0.00014515758858291
 303    -0.0016397362989053
 304    -0.0050155907441922
 305    0.0046494950772091
 306    -4.9818812368772e-05
 307    -0.0013194502346491
 308    -0.0017815635528679
 309      0.10425253057829
 310     0.097389550602812
 311      0.05991636114712
 312     0.034609839379101
 313    0.0045493107735249
 314     -0.02816065513217
 315    -0.023927181163039
 316    -0.011857441645687
 317     0.032048652123369
 318    5.7598423862069e-05
 319    0.0019291853762668
 320    -5.2564960343398e-05
 321    -0.0014823495154321
 322    -0.00047179917068615
 323     0.037538385713424
 324    0.0023950229777409
 325    0.00015138120076184
 326    -0.005573492550576
 327    -0.0012564146066673
 328     0.035955833179509
 329     -0.00444754518726
 330    0.0029760258290538
 331    0.0018818335251581
 332    0.0039413041731091
 333    -0.003723360076276
 334    -0.0076760461526569
 335    -0.0023880543289499
 336    0.00051084608224682
 337    0.0010886201500312
 338     0.021857767844175
 339      0.01994197379293
 340    -0.032759687411764
 341     0.085776464705646
 342    -0.082810160488235
 343    -0.043398189151483
 344    -0.058142419225083
 345     0.054919168904231
 346     0.035170592866779
 347    0.00031153168918193
 348    0.0003527686119645
 349    -0.0015338601230691
 350    0.0011515613026403
 351    -0.0011156305774947
 352     0.021367189377241
 353    0.0044074665981572
 354    -0.0051765972506332
 355    -0.00076578068918805
 356    -0.00029383187368525
 357     0.039561897750502
 358     0.009509881989617
 359    -2.6576318565191e-05
 360    0.0043206614140681
 361    -0.0040029449611977
 362     0.068391501829655
 363     0.013719308703049
 364    0.0054766867765984
 365    -0.0016151393683812
 366    0.0055981472032059
 Sym= A
 Ene=              21
 Spin= Alpha
 Occup=    1.00000
   1    -0.036529144121239
   2    -0.0024615586841337
   3     0.047987779505332
   4    -0.027381491948244
   5    0.0043880115581289
   6     0.081035405679512
   7    -0.073429154992487
   8      0.13449245561307
   9    -0.047222401298333
  10      0.21556476382025
  11     -0.38421050933107
  12    -0.0037885277872637
  13    -0.00085027430698959
  14     0.018486317606841
  15    0.0022168520988115
  16    0.0034083697592606
  17    -0.004808771430156
  18     0.002660433734209
  19     0.006130532955541
  20    0.0007952831222125
  21    -0.00081078140736298
  22    0.0021863811768016
  23    0.00037587346167051
  24    -0.00012408655894485
  25    -5.6546278598467e-05
  26    -0.00019336456392823
  27    0.00033895832571503
  28    -0.0006286339191099
  29    -0.00065026768129025
  30    -0.00076146033553677
  31    0.00047750993473806
  32    -0.036774137163183
  33     0.051165538378082
  34    -0.057119669050546
  35    -0.036432508429153
  36    0.0019545108284362
  37    -0.043077756086541
  38    -0.012091596993834
  39    -0.036838598245209
  40     0.078766181373444
  41     0.097478998100912
  42      0.14299237225614
  43    -0.0013450445039454
  44    -0.024480775367229
  45    -0.019665404964279
  46    -0.00013843775938574
  47     0.001277879200417
  48    -0.0033094006004293
  49    0.00062536816540769
  50    0.0012665625966068
  51    0.00097453383127766
  52    -0.00081696115223499
  53    -0.0013923593631273
  54    0.00092357770184223
  55    -0.00038839076430563
  56    0.0014383403130886
  57    0.00050404660511999
  58    -0.0010986075287869
  59    -0.00068485514885302
  60    0.00077673206344228
  61    -0.0018085622551475
  62    -0.00024780060929406
  63     -0.10450666929452
  64    -0.0018823576118168
  65    -0.0096093821675614
  66    -0.00024470457835568
  67    0.0024404547594871
  68     0.011943093826922
  69    0.00060167645913388
  70    0.0043652325045141
  71     0.012349358938202
  72    0.00070348801569479
  73    3.504990320651e-05
  74    -0.00015844471032516
  75    0.00055549748633438
  76    0.00074920937010391
  77     0.050297196641684
  78    -0.082543040569901
  79    -0.037411938413238
  80    0.0065903177093266
  81     0.017378483349669
  82    -0.067367933354861
  83    0.0064346093029421
  84    -0.0019541205365194
  85     0.034208242499814
  86    0.0025894855820838
  87    0.0025085163377271
  88    -0.00095588767867451
  89    0.00013709605479404
  90    -0.00060156797313074
  91    -0.057437840682769
  92    -0.0063114809820414
  93     0.005959957375989
  94    -0.0036349275319492
  95    -0.0017434633203477
  96     0.032301080375192
  97     0.009543253611355
  98    -0.00095553476422358
  99    0.00016771867739346
 100    -0.00076660859317385
 101     -0.04430876350214
 102    -0.003628186472048
 103    -0.00096302739110319
 104     0.005184948579654
 105    0.0019402999424795
 106     0.027602501635618
 107     0.064615677302741
 108     0.065214151627283
 109     -0.15021563535832
 110     0.041054245204994
 111    -0.016528847913559
 112     0.081263222925066
 113    -0.037835351145501
 114     0.028401023987993
 115    0.00067487690729446
 116    -0.0015775018625261
 117    -0.001090965029615
 118    0.0010866058211536
 119    0.0077204487897813
 120     -0.09404799169985
 121    -0.021243508527834
 122    -0.0025310430960838
 123    0.0058675634197186
 124    0.00057716208365362
 125     0.010880212361136
 126    -0.0026421402187906
 127    0.0051306113119543
 128    0.00023612219571303
 129    0.0018077938427311
 130      0.10938533845368
 131     0.016452350755719
 132    -0.0071532973961758
 133    -0.0083789987721151
 134     0.001513622290442
 135     -0.16295581616622
 136     -0.10139044463748
 137    -0.084691259793688
 138     0.041559090035259
 139     0.081850032972012
 140    -0.010990007337923
 141    -0.023285536731042
 142    -0.060599167470588
 143     0.029396393225656
 144    -0.0022342163303483
 145    -0.0022772678998271
 146    0.00063937005554746
 147    -0.0017688410951133
 148    -0.00056194120137783
 149     0.024265373335168
 150     0.013647038096346
 151    -0.0015797433833972
 152    -0.00030551539125744
 153    -0.00024868906193055
 154    -0.0052967834923361
 155    0.0049796622923695
 156    -0.0031400592822497
 157    -0.0022192555324936
 158    0.00075318403175219
 159    -0.068260000276661
 160    -0.0060702348903623
 161    0.0054346483863346
 162    -0.00068059934974924
 163    0.0065126926334826
 164    -0.048063127270481
 165      0.02684739264001
 166     0.011115514489134
 167     0.032967867246724
 168     -0.12314896019987
 169     0.059019636442813
 170    -0.013523110145815
 171     0.069095255343835
 172    -0.036571173637909
 173    -0.0022589422851389
 174    0.0025550362857012
 175    0.0013128114136255
 176    0.00070510942339856
 177    -0.0056949732738608
 178    -0.074788223955938
 179    -0.015013747672784
 180    -0.0056327065117539
 181    -0.0017322836234796
 182    0.0033581834169915
 183    -0.00033536421740392
 184    -0.001283408739923
 185    -0.0011312786141596
 186    0.0037077012863134
 187    -0.0014877510313335
 188      0.10840906627904
 189     0.020666680899803
 190    0.0073381318473897
 191    -0.0062947268329908
 192    0.00028427543188478
 193     0.068551711439766
 194      0.11609061214123
 195     0.026416885399042
 196      -0.0151915050093
 197      0.12595302521503
 198     -0.02045305781391
 199    0.0052994374548642
 200    -0.068919306187364
 201     0.010999807465138
 202    -0.0034054591674526
 203    0.0035371529856851
 204    0.00075816946580341
 205    -0.00093239136781129
 206    -0.00034511914600049
 207    -0.0086628508226317
 208    -0.0047177013290993
 209    0.00012440721510409
 210    -0.0045364472041452
 211    0.0020280163238697
 212      0.10023229864414
 213     0.012302408663272
 214    0.0096438227928942
 215    0.0068741266143606
 216    0.0049288484265745
 217     0.098037543149237
 218     0.013561476993723
 219    -0.010746768109419
 220    0.0018345436294914
 221    -0.0065272849721478
 222     -0.13320708957824
 223    -0.065027924050009
 224    -0.030957448480895
 225    -0.0096419505232801
 226    -0.060295607768215
 227     0.073006066193642
 228    -0.00024392784258184
 229      0.03138259144734
 230    -0.040570851956157
 231    0.0036087047930082
 232    0.0025389724352157
 233    -0.001509397439022
 234    0.0011449471766765
 235    -0.0012149465743261
 236    -0.070472956733884
 237    -0.011215038183968
 238    0.0010165443850294
 239    -0.0077228612984303
 240    -0.0031325880466557
 241     0.046623811698137
 242     0.014451639311148
 243    0.0021487281895172
 244    0.00040024578831323
 245    0.0016904121250455
 246    -0.051251814662476
 247    -0.004242148865355
 248    -0.005306433983536
 249    0.0041464291748777
 250    0.0022056052365569
 251      0.04224367989199
 252    -0.079729335299009
 253    -0.0038228033756243
 254    -0.0030124060555966
 255    -0.013717206706632
 256     0.049521974698009
 257    0.0028435582996894
 258     0.011903812312181
 259    -0.028393697786827
 260    -0.0006150565548793
 261    -0.0001436273911351
 262    -0.00016645687441113
 263    0.00012951079962242
 264    -0.00021333466894559
 265    -0.054184999541843
 266    -0.0057136898681768
 267    0.00028954709973578
 268    0.0039745994755231
 269    0.0056724420961899
 270    -0.028511778469093
 271    -0.0054464180383273
 272    0.0035066988937367
 273    -0.0025557048200979
 274    -0.0021226303764096
 275    -0.033358097339843
 276    -0.0049292413104529
 277    -0.0041767473874675
 278    -0.0026497374763745
 279    -0.0014052344238466
 280      -0.1081343194595
 281    -0.069211737050641
 282    -0.036660336602784
 283    -0.00071891007353959
 284    -0.088298343064315
 285    5.9137864069349e-05
 286    0.0079548322140062
 287     0.052261691675302
 288    0.0052468207859737
 289    0.0021584591301529
 290    -0.0012373973865463
 291    0.00011535926257805
 292    -0.0010519108040011
 293    0.0038216829104464
 294    0.0075521209561552
 295    0.0058715375661281
 296    -0.00026919977579639
 297    0.0027027994127313
 298    -9.4697991510531e-05
 299     0.025493291970871
 300     0.011146256091544
 301    -0.0013429082301929
 302    0.0011455794204256
 303    0.0010787313849396
 304     -0.08034981104203
 305    -0.0089920903795029
 306    0.0061022036183263
 307    -0.0052952772499791
 308    0.00049688651551679
 309     -0.23743718436549
 310    -0.080940289844133
 311    -0.071213650601849
 312    -0.051869068237852
 313    -0.013936733809832
 314     0.054775954666715
 315     0.029436672566696
 316     0.026972318983821
 317    -0.046192498330387
 318    -0.00061039057599849
 319    -0.0018002377115666
 320    0.00016269852059636
 321    0.0016358465347427
 322    0.00032753731990315
 323    -0.037540432033415
 324    -0.00047390765081219
 325    0.00052909380234051
 326    0.0059546282174205
 327    -0.00014762130897125
 328    -0.027464956976654
 329    0.0010673846492135
 330    -0.0016150581594555
 331    -0.0014773831063857
 332    -0.0043168108851975
 333     0.027607152973346
 334      0.01415374285499
 335    -0.00033704424435971
 336    -0.00022929140627528
 337    9.0817831698791e-05
 338    -0.045825045578457
 339    -0.041935750344966
 340    -0.041900553309473
 341     0.072675333852709
 342    -0.050165054383442
 343    -0.015400949434385
 344    -0.045949201462048
 345     0.038900297784544
 346     0.019024764098794
 347    -0.00037405165036826
 348    0.00084582281410401
 349    -0.0012560111178917
 350    0.00087293860461814
 351    -0.0014066577813865
 352    -0.017265208109222
 353     0.001973694781679
 354    -0.00089328615660925
 355    0.0030977920552602
 356    0.00058042351110735
 357    0.0037337291251493
 358     0.003859254012988
 359    -0.0021957846846956
 360    0.0012582750309408
 361    -0.00051346391065528
 362     0.041791421421598
 363     0.012483325828169
 364    0.0018679168044393
 365    -0.0012198919117974
 366    0.0027222210784279
 Sym= A
 Ene=              22
 Spin= Alpha
 Occup=    1.00000
   1     0.013423054285229
   2    -0.046429325006507
   3      0.22402236459487
   4    -0.092910577191241
   5    -0.0058216291301527
   6    -0.028652971018185
   7     0.039600974701312
   8     0.020998784925976
   9      0.12687285462891
  10     -0.14931231859427
  11    -0.088129035201682
  12    -0.051181297029424
  13     0.039067322127642
  14     0.022067995803555
  15    0.0019771695694507
  16    0.0044715594522863
  17    -0.0069930422908942
  18    0.0017018691469626
  19    0.0064821156685811
  20    0.00035518607830734
  21    -0.0018546108068979
  22    0.0026714995397776
  23    -0.0016033090287407
  24    -0.0017116363156131
  25    -0.0009673573338664
  26    -0.00046861530994002
  27    0.0014095490330443
  28    -0.0010282322462119
  29    -0.0020841037548723
  30    0.0013342000373588
  31    -0.0006389175816467
  32    -0.0089248281422097
  33     0.040343066266814
  34     -0.19237556102771
  35     0.041288428169023
  36    0.0077638616449994
  37     0.097513553455735
  38    -0.087789030057529
  39    -0.061176556801301
  40     -0.27347651381668
  41      0.21168793837402
  42      0.17216903860495
  43     0.011381279952271
  44    0.0053953378969047
  45    0.0055835664027483
  46    -0.00053670128226118
  47    -0.0012819582043607
  48    0.00021210877387835
  49    -7.3157971995579e-05
  50    -0.0020158813894746
  51    0.0013066698039063
  52    0.0044170765704108
  53    -0.0063086002940596
  54    0.0025440185877454
  55     0.006270219149239
  56    0.0011152632979684
  57    0.0003225702699407
  58    -0.001029344192841
  59    0.0015648556340254
  60    0.0027978033223351
  61    -0.0010022938386438
  62    0.00028358209005671
  63     0.062460893517175
  64     0.042620560189078
  65     0.036620340790541
  66    -0.00014047119804954
  67     0.010873374552524
  68     0.010264557012221
  69    -0.0038217441712284
  70     0.021772408826557
  71     0.018252655174916
  72    -3.7136455691401e-05
  73    -0.00038632035403355
  74    0.00064432678802422
  75    -0.00032291829703713
  76    -0.00048147444629329
  77    -0.025335186009709
  78    -0.094175736888439
  79    -0.041850984332562
  80    -0.055787496434788
  81    -0.044100330149809
  82    -0.0067952931300405
  83     0.043934956572398
  84     0.024121208549009
  85     0.005292401683323
  86    -0.00086534450083586
  87    -0.00088701071302769
  88    0.00015441344348444
  89    -0.00016944055464951
  90    -0.00023303891824373
  91    -0.010908404202698
  92    0.0078780202988752
  93    0.0032836490048578
  94    0.0012002433929874
  95    -0.00083096830038609
  96    -0.026716301615811
  97    0.0021753191989132
  98    0.0026763992428378
  99    0.0011882936284752
 100     0.003545054207281
 101     0.005069659806355
 102    0.0051395365870734
 103    0.0016074848362163
 104    0.00095976371786886
 105    0.00042658343451866
 106    -0.057889607525734
 107    -0.055088516398136
 108    -0.020315579160909
 109      0.12551821340502
 110    -0.011360470671764
 111      0.01745746643903
 112     -0.06474011562132
 113    0.0035416723200961
 114    -0.015113069239141
 115    0.00082049155886642
 116    0.0012193485072792
 117    0.0010769346332845
 118    -0.0008425561468123
 119    -0.0053785206540598
 120     0.063682296769317
 121     0.015222426683964
 122    0.0013799669319142
 123    -0.0047098700005136
 124    -0.0010047915317161
 125    0.00042906978019603
 126    0.0068099206913283
 127    -0.0047513425696227
 128    0.00043123817170015
 129    -0.00095926329111079
 130     -0.10053892214145
 131    -0.012682549218118
 132    0.0067080473003286
 133    0.0076315721149697
 134    -0.0017994067355883
 135     0.020802601167495
 136     -0.10243037216014
 137    -0.049600562091805
 138      0.11239056578353
 139    -0.021972355992265
 140    -0.063094201567655
 141     -0.05646688952645
 142    -0.00079481962239641
 143     0.042809879164403
 144    -5.7714562611853e-05
 145    -0.004114957120577
 146    -0.00040563534460259
 147    0.0035036585221693
 148    0.00025735828768725
 149    -0.074216375507928
 150    -0.0019785038651294
 151    -0.0028508245839508
 152    -0.0089775039992823
 153    -1.3072863125284e-05
 154     0.075208497944386
 155     0.021006588272335
 156    0.0040028844076805
 157    0.00064599101280714
 158    -0.0024288968318203
 159    -0.056959948698152
 160    -0.0049284821440786
 161    0.0011380315123602
 162    0.0025715417741221
 163    0.0078497768957755
 164     -0.10329374521705
 165    -0.039088841357723
 166    -0.023324567566693
 167     0.040108682144501
 168    -0.043905331153648
 169    -0.051370434531725
 170    -0.019626772660355
 171     0.016882002975114
 172     0.023198051389039
 173    -0.0019079257376924
 174    -0.0006330777235153
 175    -0.0024490776235389
 176    0.00023629606393013
 177    -0.0010506202242186
 178    0.0060565930916358
 179    0.0082418082083469
 180    -0.0013074634131319
 181    0.0023713453558346
 182    0.0023589280529532
 183    -0.069539792828147
 184    -0.0061208772274058
 185    -0.0016432362756049
 186    -0.0027629675732412
 187    -0.0067352076200228
 188      0.03130560208023
 189     0.011690762167388
 190    0.0010464019460876
 191    -0.0011761427928846
 192    0.0024489117375823
 193      0.03021786980848
 194     0.011005305352891
 195    -0.025894005024247
 196    -0.032154426115376
 197      0.15743197577152
 198     0.062951665839705
 199     0.027493722910035
 200    -0.096041236363311
 201    -0.041046420962835
 202    -0.0017520872084984
 203    0.0019043410590181
 204    0.00068577955219337
 205    -0.00058077688665475
 206    0.0011977166175156
 207     0.011408075077618
 208    0.0057188225646004
 209    -0.00070744765385581
 210    -0.0062099447155106
 211    0.00080643844523199
 212     0.094499039807047
 213     0.021570640550816
 214    0.0089512364400349
 215    0.0059422982148095
 216    0.0020478277641114
 217      0.04877015453847
 218      0.01350966906269
 219    -0.0052286169517359
 220    -0.0016470500325754
 221    -0.0057343783062819
 222      0.01040526037924
 223      0.11093503436842
 224     0.034140947492028
 225      0.04511715823186
 226    -0.024935407018636
 227    -0.00089433734405715
 228    -0.022441477884291
 229     0.016178262371946
 230    0.0027622223618823
 231    0.00080016191418108
 232    -0.00041164115387343
 233    3.4593892811479e-05
 234    0.0016968967711648
 235    -0.00054797831825176
 236     0.014152286929998
 237    -0.001495757473902
 238    -0.001729393568757
 239    0.0040704251518208
 240    -0.0004297896446166
 241     0.050283597350598
 242    0.0017713699892171
 243    0.0003714263962076
 244    -0.0021263586541493
 245    0.0069467618563659
 246     0.066421379010826
 247    0.0051962188599921
 248     0.006202036568148
 249    -0.0016287937888424
 250    -0.0058462377671868
 251     0.088738634749848
 252     0.096977129238222
 253     0.044196678257548
 254     0.086554274533033
 255     -0.08874578405536
 256    -0.059630638263746
 257    -0.047585234208065
 258      0.05485692631345
 259      0.02395104990441
 260    0.0043686544264351
 261    -0.00057536815702131
 262    0.0018582540574859
 263    -0.00040675559675448
 264    0.0048330212990923
 265      0.10512963927923
 266     0.012206113821398
 267    -0.0031963946151698
 268    -0.0037487017623095
 269    -0.011069811572719
 270    -0.071274841635905
 271    -0.019708919120211
 272     0.002740475640355
 273    -0.0020770189045705
 274    0.0022568246074719
 275     0.051349308044474
 276    0.0026131455564218
 277    0.0034318609951683
 278    0.0070422783925267
 279    0.0019889694815713
 280     0.029348671070853
 281     0.054310256762313
 282      0.02865550619615
 283     0.073682640669453
 284    -0.0084573446568912
 285    -0.097522467885644
 286    -0.047804386507724
 287    0.0013426308543463
 288     0.053093582571769
 289    0.0032761381787712
 290    0.0019374292087539
 291    0.0042864477589503
 292    -0.00034556023579251
 293    -0.0001845901699244
 294     0.092725099865566
 295     0.012459490493241
 296    -0.0026241014536837
 297    -0.0051724483683959
 298    -0.0076272725002428
 299    -0.051586136598491
 300    -0.014681599760114
 301    0.00028494023284215
 302    0.0045509599152926
 303    -0.00021259682501107
 304    -0.020834138574429
 305    -0.011094467650962
 306    -0.00056701361713956
 307    -0.0012647993776058
 308    0.0034554513453458
 309     0.077585354783618
 310     0.062515190828233
 311      0.02350229538412
 312    -0.026101670616251
 313     -0.06478678882014
 314    -0.051015699377069
 315     0.012161919913229
 316     0.033640599324862
 317     0.029219942102639
 318    -0.0020817035584912
 319    -0.0021623404875094
 320    -9.233018112799e-05
 321    -0.002618001936968
 322    -0.00092913168551414
 323     0.076270214306158
 324     0.010306144290274
 325    0.0029328757673254
 326    -0.0081698801515136
 327    -3.0759135758715e-05
 328    -0.037270379120277
 329    -0.012495110915434
 330    -0.0013955182779424
 331    0.0014953923540908
 332    -0.0013927978543596
 333     0.022435575091228
 334    -0.0030826480345701
 335    -0.0023718212667869
 336     0.002275758585189
 337    0.0027128137084063
 338     0.044158353698253
 339       0.1116120699341
 340     0.034115852046238
 341      0.04277023981597
 342     -0.05013619731713
 343     0.055267866716835
 344    -0.022092070478587
 345     0.023896022449193
 346    -0.035657085017007
 347    -0.0020562207862782
 348    0.0022590529973879
 349    -0.00012825311924664
 350    0.00050087905505562
 351    -0.002773010600466
 352     0.034004748372794
 353    0.00034536744912535
 354    -0.0049350266442824
 355    -0.0027497743861678
 356    -0.0031076810431358
 357    -0.0029508585575275
 358     -0.00520351152503
 359    -0.00092676383450193
 360    0.0022632219569478
 361    -0.0025956310053702
 362      0.10138018890613
 363     0.013354379935848
 364    0.0095769711826165
 365    -0.0043824497995547
 366    0.0049858585415268
 Sym= A
 Ene=              23
 Spin= Alpha
 Occup=    1.00000
   1    0.0042178445925917
   2    -0.028503657763229
   3    -0.0085225736642593
   4     0.073187945359805
   5    -0.015068738566299
   6     0.018206202955577
   7     0.015545663065769
   8     0.028767466794751
   9    -0.026758314382838
  10    -0.049402442941822
  11    -0.098524781840762
  12    -0.0025432865723134
  13    -0.0074701222242161
  14    0.0070973021107602
  15    0.0025845219871425
  16    0.0088167836324622
  17    -0.016222400791013
  18    0.0044256566081017
  19      0.01186123838709
  20    0.0013958921837075
  21    0.0043444302872227
  22    -0.0070821656674537
  23    0.0024790685140269
  24    0.0059151047429326
  25    -0.0013968316195538
  26    -0.00071805541508613
  27    2.6980301889427e-05
  28    -0.0015241827392442
  29    -0.0019839979546639
  30    0.0023751849403094
  31    -0.00018811212534974
  32    -0.0052315156758844
  33      0.01034964049961
  34    -0.010896377750636
  35    0.0067132163577768
  36    -0.0090921554639583
  37     0.041634097911071
  38      -0.0432001993098
  39    -0.028269552098086
  40     -0.12722829281796
  41      0.11456501350691
  42     0.075800130985941
  43      0.02945465682124
  44    -0.026282646376314
  45     -0.01704326551201
  46    0.0085660003948165
  47    -0.0024924960254209
  48    -0.013573706437327
  49    -0.0065301849150811
  50    -0.00069106208979067
  51    0.00013216550594664
  52    0.0055304679604465
  53      -0.0067162408327
  54    0.0034806351140721
  55    0.0071074983217913
  56    0.0018890919822968
  57    -4.0167804050898e-05
  58    -0.0011556393021812
  59     0.002222379612772
  60    0.0037290060105041
  61    -0.0018570068288034
  62    0.0004790679525676
  63      0.12127608448525
  64      0.20107363227739
  65      0.17140385648053
  66    -0.0023747646880566
  67    0.0047608066517501
  68    0.00057015535139498
  69    -0.0041216515953583
  70    0.0048239097643349
  71    -0.001350037220922
  72    -0.00011616577711712
  73    -0.0024491771965979
  74    0.0035083904562687
  75    -0.0015412303654144
  76    -0.0030739257446745
  77     0.035723524807044
  78    -0.042826651505795
  79    0.00084350052944765
  80     0.026532333279725
  81      0.13286581711787
  82    -0.0051429056915282
  83    -0.020483310188988
  84    -0.074037456865984
  85    -0.00081367514513752
  86    0.0030815122011292
  87    0.00032725024368823
  88    -0.00030979975966238
  89    0.0046878495349373
  90    -0.0016214355873575
  91    0.0025075923377467
  92    0.0044818735821306
  93    -0.00031151619256999
  94    -0.0047454772328812
  95    5.7699546462554e-05
  96     0.016785336622982
  97     0.002293852462217
  98    -0.00079164380725751
  99    -0.0038807120548347
 100    -0.00081923261771307
 101     -0.12241539578044
 102    -0.022580595177751
 103    -0.00056477401991514
 104     0.011649417395067
 105    0.00019061086452985
 106    -0.084121174391276
 107     -0.16231373616219
 108    -0.031761297167761
 109     0.022433988659453
 110     0.068640351616234
 111     -0.10277700124182
 112    -0.012963900344791
 113    -0.037633662003457
 114     0.057202168432734
 115    -0.00024957206758383
 116    -1.7045221035349e-05
 117    -0.00054093680686451
 118    -0.00033530399725546
 119    -0.00094508407108304
 120     -0.06892151863213
 121    -0.011189773152696
 122    -0.0097865077600266
 123    0.0051633535227034
 124    0.0049171394715992
 125    -0.095772491961485
 126    -0.0076140791876668
 127    -0.002369975724124
 128    -0.0093228602691898
 129    -0.009912910060935
 130     -0.10008995892438
 131    -0.013958273883179
 132     0.012948815003915
 133    0.0058289394042552
 134    0.0018681800450491
 135    -0.013201892182281
 136    0.0040692763959107
 137     0.022220967400837
 138     0.074119640604889
 139    -0.0046982190623402
 140      0.10932482979043
 141    -0.041088385150941
 142    0.0085911063625669
 143    -0.071184755417035
 144    -0.0020041592984523
 145    -0.0041775834034095
 146    -0.00093412422322923
 147    -0.0014969834152327
 148    -0.00039762353405381
 149     0.011517224263546
 150    0.00087656396946751
 151    -0.0026863527429847
 152    0.00072482223580943
 153    -0.002881264081105
 154     0.016991224743487
 155    -0.00043224889948222
 156    -0.0013950512642813
 157    -0.00019308933473153
 158    -0.0041311305580215
 159     -0.10070025537475
 160    -0.017153801678333
 161    0.0067022033973623
 162    0.0020827253377893
 163    0.0056313098481168
 164     0.017927774712507
 165    -0.035297030459683
 166     0.014430304884241
 167     -0.15052168837307
 168     0.065649843322575
 169     0.041565045944855
 170     0.095828370359592
 171    -0.029561456039762
 172    -0.021990772086509
 173    0.0040433051144376
 174    0.00081078472537288
 175    0.0038693407319343
 176    -0.00065136544365143
 177     0.003838591086035
 178    -0.048479806881705
 179    -0.0056769619984087
 180    0.0020748335922626
 181    -0.0071087025513213
 182    0.0031499969355997
 183     0.049199993717695
 184    0.0094552880743132
 185    0.0047066072705966
 186    0.00017720373201725
 187    0.0028930238109579
 188     -0.12549238260551
 189    -0.023595630398539
 190    -0.0055247123393373
 191       0.0105178128335
 192     -0.00338644722268
 193    0.0072034173211021
 194     0.035224187747976
 195    -0.0083362175689329
 196    -0.062213664842983
 197    -0.019735731385004
 198     0.022104796395084
 199     0.038055953078162
 200    0.0099675434692285
 201    -0.017205900333088
 202     0.001424905978207
 203    -0.0013136547899016
 204    -0.0015601109087124
 205    0.0013188643580965
 206    -0.0016543980877024
 207     0.050862598883549
 208    0.0081373907649565
 209    -0.00064588765040771
 210    -0.0012539322036311
 211    0.0054205165439234
 212    -0.026819449373242
 213    -0.0027420625137231
 214    0.00011654862872096
 215    -0.0012545901838308
 216    -0.0011310227404467
 217     0.034339766820338
 218     0.006505814438712
 219    -0.001713898632393
 220    0.0030485628909743
 221    -0.0027556442089853
 222     0.007554715918272
 223     0.044126036858784
 224     0.001711695708628
 225     0.016899618886026
 226     0.070336097382968
 227     0.013496328938488
 228    -0.017427195507223
 229    -0.038786780315798
 230    -0.0062914152634858
 231    -0.0013315133398228
 232    -3.2798701998102e-05
 233    0.00015707396328587
 234    -0.0020798271389288
 235    0.00048089230103765
 236     0.071111511567949
 237    0.0073543485774363
 238    -0.00028926975892732
 239    0.0074196113940379
 240    8.6745935322942e-05
 241     0.009098634363564
 242    0.0015725219866259
 243    0.00055857019322057
 244    -0.0030970001165074
 245    0.0012455590399215
 246    0.00086349351120926
 247    0.0013466622148186
 248    0.0001907731514068
 249    -0.0028002908627324
 250    -0.00092144892762028
 251    -0.073803913808349
 252     -0.14355646697629
 253    -0.030494673840804
 254    -0.045985745501394
 255    -0.067918378967541
 256     0.058836006945027
 257     0.024237805603413
 258     0.040136625341431
 259    -0.030746814263412
 260     0.001242166127778
 261    0.00039816358639345
 262    0.00058265239378534
 263    -0.00026621507995151
 264    -0.0020462474926367
 265    -0.058982133009445
 266    -0.001666326634675
 267    0.0021734449757631
 268    0.0067551835024721
 269    0.0070765067270972
 270    -0.048569953256655
 271    -0.010103943861269
 272    0.0084739463960572
 273    -0.0028646273744432
 274    -0.0026564093547905
 275     -0.10903142979533
 276    -0.010232954752372
 277    -0.011620616184691
 278    -0.0068463149471815
 279    -0.0014310905389722
 280     0.064588585836656
 281      0.18998949124574
 282     0.066867243099865
 283     -0.04730665142021
 284    -0.022256767603229
 285     0.041067486373493
 286     0.012249538341441
 287     0.011131934414597
 288    -0.022770074742043
 289    -0.00082222077235165
 290    -0.0011277807537029
 291    -0.0019314525975701
 292    -0.00030486903977392
 293    0.0014159345235675
 294     0.035397149179567
 295    -0.0017482407439033
 296     0.002519137833646
 297    -0.0025662441291534
 298    -0.0075815018697769
 299      0.11015605517853
 300     0.012733921097057
 301    -0.0046375694362909
 302    -0.010783671549097
 303    0.0084722409467812
 304     0.068274428818869
 305    0.0023460132723587
 306    -0.0053150795842855
 307    0.0097853608077258
 308    -0.0019767199460601
 309     0.022447657161059
 310    -0.018335801240239
 311    0.0013483185196803
 312     0.044797958374741
 313    0.0042702844809185
 314    -0.020059784390264
 315    -0.026365117170471
 316    -0.0016573534065608
 317     0.015549494157209
 318    8.7658805145912e-05
 319     0.002132148416426
 320    -2.6983840381274e-05
 321    -0.0016734690040677
 322    -0.0004111861907355
 323    0.0014660891005528
 324    0.0027572042109286
 325    -0.0013072852092809
 326    0.00019855224916994
 327    0.00018439086406006
 328    0.0080722265052793
 329    0.0050347611335991
 330    -0.00065791922516905
 331    7.8987875497175e-05
 332    0.0010990310076019
 333    -0.046108647838575
 334    -0.0094861960430517
 335    0.0038182165621202
 336    -0.00018583776139296
 337    -0.0017027389529737
 338    -0.038044758032131
 339    -0.070802381864069
 340    -0.058962764229503
 341     0.066777887086177
 342    -0.040418096159861
 343     -0.05860957062764
 344    -0.049010095738004
 345     0.036691687720705
 346     0.043875890717131
 347    0.0010529985148989
 348    -0.00081776831505927
 349    -0.0012408674837359
 350    0.00060378240955046
 351    -0.00075333407796806
 352    -0.020920340857446
 353    0.0022717464890593
 354    -0.00044772104402163
 355    0.0030731253927776
 356    0.0022669101898786
 357     0.026852079021238
 358     0.010458954404748
 359    -0.00043731025287447
 360    0.0016022501288401
 361    -0.0010750214495441
 362    0.0070892862780459
 363    0.0077830630156431
 364    -0.0011934927237123
 365    0.00085634385007464
 366    0.0017858527249761
 Sym= A
 Ene=              24
 Spin= Alpha
 Occup=    1.00000
   1     0.027238939128846
   2     -0.05932407541003
   3     0.082751629607849
   4     0.012654337083103
   5    -0.00060036877816432
   6    -0.015393567747857
   7     0.030479944729951
   8    -0.019452507213296
   9    0.0013787865051925
  10     -0.12317390129372
  11    -0.013063497192829
  12    0.00043164130738545
  13    -0.014035187697204
  14    -0.023570331138601
  15    -0.00085564510073992
  16    -0.003613371731011
  17    0.0065406377312679
  18    -0.0010768851219031
  19    -0.0045614632028328
  20    -0.00096275014949272
  21    -0.0034907657258402
  22    0.0065137429343674
  23    -0.003376327557642
  24    -0.005219628973413
  25    0.0019219490042181
  26    3.0229058538265e-05
  27    -0.00023478931488974
  28    0.00056359622589354
  29    0.0025279669950239
  30    -0.0023548267887577
  31    -0.00065270545997638
  32     0.020388996653432
  33    -0.054635098238436
  34      0.15568025353928
  35    -0.001885227473902
  36    0.0029658040592372
  37     0.021717086451349
  38    -0.049295254050355
  39     0.014511605933063
  40    -0.020644771535269
  41     0.081679836260315
  42    -0.073137156643346
  43    0.0053216779236963
  44     0.034128248495266
  45     0.024860522015144
  46    -0.0034535856507725
  47    -0.0029364753660771
  48     0.010650924920593
  49    -0.0011941764510753
  50    -0.0049080765257096
  51    -0.00037522373019084
  52    -0.0040990915832296
  53    0.0074114160214989
  54    -0.0039604249582258
  55    -0.0058041159823287
  56    -0.0023930577979024
  57    -0.00078168223384533
  58    3.6743353870754e-05
  59    -0.00091400822805419
  60    -0.0024921924003576
  61    0.0023631308460194
  62    0.0016410303199977
  63      -0.2620366651089
  64     -0.21331393594446
  65     -0.19092677781757
  66    -0.0027016690135157
  67    -0.0061870894814148
  68    0.00021130307568209
  69    -0.0065316525929604
  70    -0.0078086291862393
  71    0.0023980407051423
  72    0.00040547381559024
  73    0.0025852103667106
  74    -0.0037358623629197
  75    0.0012862908901031
  76    0.0034535805451952
  77    -0.004699026247391
  78    0.0013286682819218
  79    -0.016639137792029
  80    -0.016445533704676
  81    -0.084045395881443
  82    -0.0035805077497831
  83     0.016886292589199
  84     0.048323870673498
  85     0.007270623007431
  86    -0.0017088796904334
  87    0.00052308575926427
  88    0.00055190264252794
  89    -0.0032614570597467
  90    0.0013995729338862
  91    -0.013639110348144
  92    -0.0021428784430289
  93    0.0010829285451705
  94    0.0020807020695791
  95    -0.00081129116001352
  96    -0.013655558362345
  97    -0.0050720110652386
  98    0.0013186983555494
  99    0.0029461355944071
 100    0.0015323559818501
 101     0.070077947139252
 102     0.016551708573125
 103    0.0004963130800441
 104    -0.0060727914385132
 105    0.00057975314593975
 106    -0.054960111330493
 107    -0.048135115870994
 108    -0.022107960197579
 109     0.019027209047113
 110     0.036539089057531
 111    -0.0038502337583856
 112    -0.010595870413114
 113     -0.01888877608065
 114    0.00025571770222387
 115    0.00044760423476968
 116    0.00036574862107992
 117    0.00042821060982966
 118    -0.00048300480081884
 119    -0.00051064193662202
 120    -0.023120292769279
 121    0.0024909414186182
 122    -0.0034527497845692
 123    0.0014233545525978
 124    0.00053909081976884
 125    -0.0034639838414177
 126    0.00089062790334776
 127    -0.00085879003623778
 128    -0.0022978665035822
 129    -0.00051708321088808
 130     -0.04285929928159
 131    -0.0055964014469947
 132    0.0049903571024085
 133    0.0021362046247359
 134    -0.00039877223162971
 135      0.14614013324497
 136     0.041147555634364
 137     0.024831523231732
 138     0.093485719451451
 139     0.014446841255584
 140    -0.00078184848362621
 141      -0.0510795532007
 142    -0.0035503448979317
 143    -0.0016965436578306
 144    -0.00031229610328436
 145    -0.0045593747821149
 146    -0.0005626752191361
 147    0.0012752541837154
 148    -0.00016658662165615
 149     0.015951822562704
 150    0.00044680042225479
 151    -0.0032940713333987
 152    0.0027006208307165
 153    0.00045026773001318
 154     0.083380528312666
 155     0.010881043131862
 156    0.0068832354500432
 157    -0.001499570566156
 158    -0.004492178867667
 159    -0.041036139669506
 160    -0.011114778841099
 161    -0.00063332691444699
 162    -0.0004894882049369
 163    0.0036180325027551
 164     -0.17296772317925
 165    -0.050224793435321
 166    0.0015315796361617
 167    -0.081717231118644
 168    -0.079175311164479
 169     0.069201330842481
 170     0.052256477794658
 171     0.046940859199549
 172    -0.035771987757291
 173    0.0003094900749354
 174    0.0025477275578125
 175    0.0029480072804963
 176    0.00046859393766557
 177    -0.0034660809289414
 178     -0.12286876744364
 179    -0.020133369782312
 180    -0.0045993148807292
 181    -0.0086139445788944
 182    0.0084071930986212
 183    0.0024907324400942
 184    0.0019931486859173
 185    0.0029974358928151
 186    0.0022087421195981
 187    -0.0034235224875458
 188    -0.0024743943741406
 189    -0.00016578778699074
 190    0.0014478418558067
 191    0.0041985199651192
 192    -0.0031245283983446
 193     0.014480715919708
 194     0.084265754839019
 195     0.084783772664889
 196    -0.0039728839742867
 197    -0.073329061520627
 198     -0.12302481674731
 199    -0.012099611970594
 200     0.062951914469753
 201     0.086969059764853
 202    -0.0012582342497553
 203    0.0014006765465993
 204    -0.00085900894217799
 205    0.0012006883340184
 206    -0.0038890155310545
 207    -0.035530207392873
 208    -0.012874724427955
 209    0.0024584297996324
 210    0.0027917778318108
 211    -0.00016736738286315
 212    -0.044597419529337
 213    -0.014897616277073
 214    -0.002496398909688
 215    -0.0023226837112129
 216    0.0020164860820248
 217     0.056381448042475
 218     0.004061805497862
 219     -0.00483851818295
 220    0.0048991105840355
 221    -3.0918973771495e-05
 222     -0.12372037482967
 223     -0.15211984602381
 224    -0.058661861882053
 225     0.017718790845418
 226    -0.018987921838129
 227      -0.0267173803494
 228    -0.021325737077471
 229    0.0012332050497925
 230    0.0075554161945702
 231    -0.00010228827912124
 232    -0.0011186526478089
 233    0.00062201932494567
 234    0.00070348145434729
 235    -0.0002162543873433
 236    -0.066704246422673
 237    -0.0074797667113823
 238    -0.00026304105321123
 239    -0.0097979554528905
 240    0.00092331959553196
 241    -0.062232887269711
 242    -0.0041934281294957
 243    -0.0032383999648694
 244    0.0041868345025093
 245    -0.0078788165029476
 246    -0.020574389583824
 247    0.0036119822654624
 248    -0.0032826769375972
 249     0.002493575666593
 250    0.0040904340383949
 251    -0.065266457465321
 252    -0.081188421237192
 253    -0.021460299384194
 254    -0.071789774307148
 255    -0.080628541911057
 256    -0.028905652851245
 257     0.039048763976942
 258     0.039905252927658
 259     0.014606671842773
 260    0.0028259121243617
 261    0.00099362335068636
 262    0.0018561377122477
 263    -0.0008557501793452
 264    -0.0032730321553788
 265     0.028668254329078
 266     0.007846503922781
 267    0.0023720997425933
 268    0.0021532690061636
 269    -0.0017166238833496
 270    -0.021828550635527
 271    -0.00045325224713744
 272    0.0059104457849297
 273    0.0001531647119569
 274    0.00090833555629077
 275     -0.11184410639519
 276    -0.017685673879351
 277    -0.010503358242834
 278    -0.0057096679388237
 279    0.0023158514780206
 280     0.070645169279931
 281     0.088279093369637
 282     0.049981273244685
 283      0.02824998583355
 284    -0.040772503491036
 285     0.054841789383213
 286     -0.03171862875962
 287     0.015012893483248
 288    -0.036715335218061
 289    -0.00052670631269176
 290    -0.0014779142759265
 291    -0.0019896534942278
 292    0.00036874887212557
 293    0.0025125294223716
 294     0.003462065298395
 295    -0.0051977155393018
 296    -0.00060277541241521
 297    0.00071882590226027
 298    -0.0032476847784518
 299     0.071492505651299
 300     0.010335526260446
 301    -0.0045617438231377
 302    -0.0053618463032994
 303    0.0043039924562971
 304    -0.013293521573284
 305    -0.0058626683024199
 306    0.00056031288386504
 307    0.0014994032298954
 308     -0.00151120655188
 309      0.17119861813057
 310       0.1373765190447
 311     0.043900775257101
 312    -0.045616035129042
 313    -0.0074471067535941
 314     0.066581103590101
 315     0.023802532602087
 316    -0.0021175214462602
 317    -0.033749984955702
 318    0.0014194686442011
 319    -0.0014611247330135
 320    -0.00049041406488779
 321    0.0027023601479533
 322    0.00065309751161978
 323     0.030445348416527
 324    -0.00093368262048901
 325    0.0027671365791819
 326    -0.0061863732979724
 327    -0.0034660352700623
 328     0.058527426850778
 329    0.0056448297802152
 330    0.0082992721067307
 331    0.0030173482450666
 332    0.0040636913210013
 333      0.10300490584762
 334     0.013246632610179
 335    -0.012144053995125
 336    0.0011579681310453
 337    0.0038057738039356
 338      0.01421346215558
 339     0.026536988254144
 340       0.0654698566101
 341    -0.069149283650383
 342     0.056801715083199
 343      0.13658160297119
 344     0.047484073094253
 345    -0.054262788244397
 346    -0.091240890207255
 347    -0.0024585367473076
 348    0.0022754798138589
 349    0.00085557301806989
 350    -0.00010387698945806
 351    -0.0016973504363038
 352    -0.015724037063781
 353    -0.0065315750617068
 354    0.0036801634688736
 355    0.00063567454951535
 356    -0.0036028049108266
 357    -0.091872239410858
 358    -0.020749236635752
 359    -0.0028036863629738
 360    -0.0047358713651886
 361    0.0069722620431416
 362    0.0044163440675303
 363    -0.0027002719755149
 364    0.0018315051376381
 365    -0.00093574196535729
 366    -0.004388325968197
 Sym= A
 Ene=              25
 Spin= Alpha
 Occup=    1.00000
   1      -0.0297461593371
   2     0.081611828359171
   3     -0.11877152284973
   4    -0.052468269561059
   5      0.01164138139598
   6     -0.06319921640542
   7    -0.038048609984019
   8     0.040459179102458
   9      0.23175670274824
  10      0.10619429469054
  11    -0.086511940653889
  12    -0.031459676514502
  13    0.0033677783157141
  14    0.0094639015921692
  15    -0.0018278613176723
  16    -7.7652548238969e-05
  17    0.0046955366976424
  18     0.003395988869193
  19    0.00050182003843306
  20    0.0013394502153045
  21    0.00035066177756858
  22    -0.0010650775240163
  23    0.0011524881522981
  24    0.0014421245294564
  25    0.00037768715125197
  26    0.00081985832921827
  27    -0.00069918964731994
  28    -0.002923585288371
  29    -0.002863079871934
  30    8.4775124804507e-05
  31    -0.0013380948018081
  32     0.003282754169236
  33     -0.02825244013457
  34     0.077460730795449
  35    -0.029676273116652
  36    0.0038480069644557
  37    -0.043898513831668
  38    -0.027088265441675
  39    -0.0020732811380518
  40      0.12773911985805
  41      0.09884036887108
  42    -0.0058109136136102
  43    -0.0059024749842651
  44    -0.0090448825970968
  45    -0.0035459694459154
  46    -0.0043767829303475
  47    0.0032405199114549
  48    0.0039247630253892
  49    0.0035318067002382
  50    0.0023209857578422
  51    -0.001205677596941
  52    0.00010825141776914
  53    0.0018500438459408
  54    -0.0020818231181815
  55    -0.00081244542907724
  56    0.0010718987370856
  57    1.0422831062643e-05
  58    -0.00018845903512488
  59    -4.9794615736964e-05
  60    -0.00060915915626946
  61    -0.00015830995934884
  62    -0.00063934491435069
  63     0.090412947995013
  64    0.00016671741576045
  65     0.011488224428483
  66    0.0016225909788375
  67    -0.014223709241744
  68    -0.00090849152386967
  69    0.0083215835531552
  70    -0.013957870780216
  71    -0.0024617188389559
  72    2.5545945711623e-05
  73    -8.2700246326854e-05
  74    0.00030633640059057
  75      0.00040261703429
  76    7.4113998383647e-05
  77    -0.059457144479482
  78     -0.18666958682325
  79    -0.090533936413176
  80    -0.017724154677916
  81    -0.052205142281724
  82      0.03872843295921
  83     0.032425694445147
  84     0.038617906177634
  85    -0.014652376585431
  86    -0.002221047294834
  87    -0.0018829580246809
  88    0.00058957262651297
  89    -0.0013395771251938
  90    3.9914344639916e-05
  91    -0.042631152960041
  92    0.0048100635701395
  93    0.0055903230126432
  94    -0.0012515642308134
  95    -0.0060120993498088
  96    -0.097492574373445
  97    -0.0081703788620214
  98     0.003216285963719
  99    -0.0029041768635317
 100     0.011926417939916
 101     -0.01631236714901
 102     0.010563605784087
 103    -0.0010722368541144
 104    0.0057168700312359
 105    -0.0016605737800508
 106    -0.023406425169261
 107    -0.077721944428992
 108    -0.045157164287692
 109    -0.0021256918036409
 110    -0.065084418634898
 111    -0.011458164326085
 112    0.0077941081758973
 113      0.04637159668121
 114    -0.0060814562702716
 115    -0.0026189308818823
 116    -0.00041339611503856
 117    -0.00060369803581908
 118    0.00060780076461114
 119    -0.00017805263916147
 120      0.01125528530971
 121    0.0049807424130358
 122    0.00026729951341843
 123    0.0012234248724264
 124    0.0010127987745995
 125    -0.057640673057829
 126    -0.0039865344148907
 127    -0.0013281624825325
 128    -0.0020416948567834
 129    -0.0062242517137952
 130    0.0014141768906518
 131    0.0057744139611804
 132    0.00068126278198236
 133    0.0023208539230503
 134    0.0012739007017529
 135    -0.025349499943458
 136      0.10646107121528
 137     0.027304749904291
 138     -0.12897040767502
 139      0.10582616847845
 140    -0.031457904571851
 141     0.073443465452016
 142    -0.059178728370859
 143      0.01747915050935
 144    -0.00089068053572635
 145    0.0062068329637345
 146    0.0010682234682642
 147    -0.0049286801824534
 148    -0.00064854499402524
 149       0.1208721734382
 150     0.015804373156387
 151     0.001568996821677
 152     0.013031111807198
 153    0.0050907794131302
 154    -0.059683960886285
 155    -0.020650769073699
 156    -0.00016170914940321
 157    -0.0041798864161383
 158    0.0033417918129778
 159      0.10368909720767
 160     0.014323419672843
 161    -0.0062543010192939
 162    -0.0065079551127332
 163    -0.0091208034732822
 164      0.17899088507791
 165     0.091223495559587
 166     0.038318978304902
 167    0.0040253099298163
 168     0.042158374005722
 169     0.038475300343063
 170    0.0057616047313508
 171     -0.02054369764302
 172    -0.021075420927618
 173    0.0016378885225611
 174    0.00012511622531561
 175    0.0017402005711609
 176    -0.00073888245084997
 177    0.0012825108956086
 178     0.033532446289054
 179    -0.0011673082519824
 180    0.0018029191318585
 181    0.0023150872796102
 182    -0.0057196102677947
 183      0.07409947861763
 184     0.006395863498425
 185    -0.0007937275236551
 186    0.0036745557252686
 187     0.008477276117022
 188    0.0084868336032014
 189    -0.002901228820991
 190    0.0012389428278568
 191    -0.004076188962228
 192    -0.00069425169680405
 193    -0.0075990153971379
 194    -0.033111875235605
 195    -0.048969264478545
 196     -0.10324361463823
 197    -0.027629682592037
 198       0.1479042614096
 199     0.071603700914252
 200    0.0039092770383321
 201    -0.093873126111592
 202    0.0047658013412661
 203    -0.0046954779574537
 204    -0.0027855794129787
 205     0.001558254891287
 206    -4.2909060110296e-05
 207      0.13064225668191
 208     0.027407745803468
 209    -0.0041994429422131
 210    -0.003479205991675
 211     0.010068607894123
 212    -0.048569393071994
 213    -0.0052064461282527
 214    -0.00014046808916678
 215    -0.0029308367644732
 216    -0.0062154265997676
 217    -0.019040965517492
 218    0.00028618126892063
 219    0.0043325062671144
 220    -1.1124638247792e-05
 221    -0.0035009236394401
 222     0.011050985860678
 223    -0.084208057978144
 224    -0.021104392750178
 225    -0.047966933955435
 226    -0.009000476475618
 227      0.06342381656654
 228     0.022555495273752
 229    0.0023949903481747
 230    -0.036761665818787
 231    0.0017353904187585
 232    0.0028314679228789
 233    -0.00095788480491113
 234    -0.0013236925724097
 235    5.3968802421138e-05
 236    -0.032316602636136
 237    -0.0056509554122386
 238    0.0019228103396013
 239    -0.0049222683995323
 240    -0.0023650748589926
 241     0.013857384777479
 242    0.0025422849142984
 243    0.0018072935429083
 244    0.00016962108362351
 245    -0.0018272279799142
 246    -0.084625180334412
 247    -0.011780874886362
 248    -0.0075558538344618
 249    0.0034130517701585
 250    0.0048240508239708
 251    -0.041106886908466
 252    -0.033076720476427
 253    -0.015549285306896
 254     0.039704157913078
 255    -0.056456179461684
 256    -0.064000431477021
 257    -0.020482369658121
 258     0.029667534280045
 259     0.040206210850344
 260    0.0036500677035542
 261    -0.00018061924774409
 262     0.002150289965227
 263    -0.00025290843959599
 264    0.0023318518025172
 265     0.054173097020815
 266     0.012245409011005
 267    -0.0017386187030755
 268    -0.00081184392638214
 269    -0.0038818794330041
 270    -0.069042962713462
 271    -0.010599771427121
 272    0.0053808850246565
 273    -0.0030314803858921
 274    0.0018931110861296
 275    -0.0083043818713388
 276    -0.0030362134533918
 277    -0.0026143479367839
 278    0.0011378296466984
 279    0.0021649820814282
 280    -0.00014862336287488
 281     0.034277873569083
 282    0.0046533058151303
 283    -0.064012536003567
 284     0.048974205077536
 285    0.0052056033142579
 286      0.03700961891665
 287    -0.026863226953046
 288    -0.0022787220162653
 289    -0.0021364049054674
 290    0.00043054115464473
 291    -0.0009375251431089
 292    0.00066862138314301
 293    -0.0024307213038547
 294    -0.011896159587191
 295    -0.0024360665575275
 296    0.0022877902081427
 297    -0.0013342108551486
 298    0.00044385968370046
 299    0.0075603936948798
 300    0.0023708038172971
 301    0.0014134901184698
 302    -0.002874593235523
 303    0.0008497613827215
 304      0.07468475769888
 305     0.012531177791425
 306    -0.004036527930641
 307    0.0060397465302737
 308    -0.00086951164917729
 309    -0.023105978562202
 310      0.16933554720543
 311     0.042060291686776
 312    -0.056765906808415
 313     -0.11952370003448
 314     0.021246309518038
 315     0.029853840493821
 316     0.063496782837468
 317    -0.0052199033232473
 318    -0.0026345108241348
 319    -0.0032139749479637
 320    -0.00046557427771916
 321    -0.0022207596638777
 322    -0.00081116325917289
 323      0.13134940463154
 324     0.017519031120872
 325    0.0054296286388216
 326     -0.01475494314587
 327    -0.0048738900369227
 328    0.0091388200578042
 329    -0.0037460321060783
 330    0.0048088973857019
 331     0.005393897230629
 332    0.0018263653995982
 333     0.099897584188206
 334     0.015934806346435
 335     -0.01210521089849
 336    0.0045120743421204
 337    0.0050475945999096
 338     0.022678394765217
 339     0.029939407525886
 340    0.0043194063360605
 341    0.0096369330466409
 342    -0.037926484484179
 343    -0.0090316167897511
 344    -0.0037006741604915
 345     0.023046844856975
 346    0.0050594689398845
 347    -0.00055591723760823
 348    0.00064135311194462
 349    9.3459940201304e-05
 350    -0.00032037614029234
 351    0.00019270187496935
 352     0.028486578932359
 353    0.0033363204290984
 354    -0.0030710230802215
 355    -0.0019237342317125
 356    -0.00088391916194926
 357    0.0089958234047097
 358    0.0022432763069752
 359    0.00053300035867177
 360     0.001598610223763
 361    -0.0014376588444312
 362     0.024331597958943
 363    0.0036609124411454
 364    0.0027129536554512
 365    -0.00035459065944178
 366    0.0021406340407771
 Sym= A
 Ene=              26
 Spin= Alpha
 Occup=    1.00000
   1    -0.036123241802045
   2      0.10427228543902
   3     -0.21582041313915
   4     0.043094795553056
   5    -0.0017973689076995
   6      -0.0307272049099
   7     0.027994623526231
   8     0.018644025367074
   9       0.1367875497563
  10    -0.084248675111036
  11    -0.034426466527593
  12     0.010289835795434
  13    -0.010299300813059
  14    -0.015836157793553
  15    -0.0022130369131532
  16    -0.00022036014570202
  17    0.0031559839522837
  18    0.00056263851942287
  19    -0.00094190945529612
  20    0.0016464484517879
  21    -0.0012659346391628
  22    0.00073746047711645
  23    -0.00014706766396949
  24    -0.0010293817101465
  25    0.0010163210256715
  26    0.00080032604076828
  27    0.00065171830242724
  28    0.0012827761436218
  29    0.00029713001797614
  30    -0.00065351253787187
  31    -0.0009967441055449
  32    0.0064538169366262
  33    -0.039259122191491
  34     0.070860405339007
  35     0.012666062582487
  36    -0.0012678981346009
  37    -0.034221018459535
  38    -0.018142524866558
  39    -0.015062172092591
  40     0.098496382493387
  41     0.025551047375882
  42      0.02808471035076
  43    -0.015285344991435
  44    0.0029763119202381
  45     0.031346026183515
  46    0.0018965438709511
  47    0.00099983285341801
  48    -0.0030430320130672
  49    0.00011816481097677
  50    0.0020030897307051
  51    -0.0011697066387626
  52    -0.003369751670096
  53    0.0062911782036209
  54    -0.0017652549632946
  55    -0.0041790399893768
  56    -0.00042419438242997
  57    0.00022033929315722
  58    -0.00089858631117536
  59    -0.0012939198138949
  60    -0.0030451030650384
  61    0.0020497344745164
  62    -0.0003359085608934
  63     -0.11669786130873
  64     -0.12257251241876
  65     -0.11163882722377
  66    0.0047964959329705
  67    -0.0083692533804937
  68     -0.01139912833821
  69    0.0061990264026522
  70    -0.0091889886588874
  71    -0.015759524553871
  72    0.00037756350591674
  73    0.0015107357691284
  74    -0.0022296307076404
  75    0.0010961386060791
  76     0.002220591785133
  77     0.080294502302645
  78    0.0023671968178795
  79    0.00098459750228148
  80    -0.00047638101404145
  81     0.080553477498136
  82    -0.043708838209289
  83    -0.001107122382444
  84    -0.041857607118405
  85     0.024124296738768
  86    0.0033206668856251
  87     0.001699659501625
  88    -0.00065861115381985
  89    0.0024159760510388
  90    -0.00085686779145578
  91    0.0020064386258699
  92    -0.00012394631932297
  93    -0.0005427068655323
  94    -0.0027104366290223
  95    0.0015931982890695
  96     0.055064319330701
  97     0.012204984277914
  98    -0.0019280303074903
  99    -0.0010925152882247
 100    -0.0048352159000075
 101    -0.065521588477745
 102    -0.015131354421799
 103    0.00033432061098122
 104    0.0054800586431519
 105    0.0010299339477225
 106     0.093603482933624
 107     0.046778862385162
 108     0.039596683024257
 109    -0.067000521682533
 110    -0.020204993885505
 111    -0.072178882387726
 112     0.035805946446823
 113     0.007311626783538
 114     0.049720841185987
 115    -0.0031591014142198
 116    -0.0011695236360778
 117    -0.0019867133624369
 118    0.00063434573533097
 119    0.0024392134320959
 120    -0.0095878793857539
 121    -0.012985013727521
 122    0.0016424752311551
 123    0.0014593277479049
 124    0.0017086142133935
 125    -0.049069641545134
 126    -0.013223481759995
 127    0.0016911373567547
 128    -0.0017405318353798
 129    -0.002891945318527
 130     0.067744956996106
 131     0.008030538842655
 132    -0.0053320526622319
 133    -0.0037572332237735
 134    0.0030712523198402
 135    -0.080928339340119
 136    -0.041942726649964
 137    -0.028829349934785
 138    -0.037008077396066
 139    -0.0078908988419275
 140    -0.010589648523957
 141     0.016888581692231
 142    -0.0022462485996494
 143     0.015993459115536
 144    0.00073047108555811
 145    0.0016931379138189
 146    0.00040663381413143
 147    0.00032675742727732
 148    0.00026182497879042
 149    -0.019317577666735
 150    -0.002359843211975
 151    0.0015857571506011
 152    -0.0025716196622499
 153    -0.00089788594733267
 154    -0.037625373279111
 155    -0.010630349245115
 156    -0.0039532204412963
 157    0.0004458882709767
 158    0.0024759517286506
 159      0.01492842799846
 160    0.0072496974902849
 161    0.00098876422330865
 162    0.00081589242942261
 163    -0.00098317952781728
 164     0.064348179866007
 165    -0.059677355259716
 166    -0.0055808846673195
 167     -0.07502436582538
 168     0.047198795453048
 169    -0.0073894367256186
 170     0.042839963753751
 171    -0.022911008163608
 172    0.0075857809287387
 173    0.0015863324996965
 174    -0.00079830939844082
 175    0.00077842933256833
 176    -0.00030377075349843
 177    0.0023908064067872
 178    -0.015487957696917
 179    -3.9410398648884e-05
 180    0.0012282396380194
 181    -0.0035773574076072
 182    0.0018200733975103
 183    -0.0012858141588576
 184    -0.00062379741666451
 185    0.0028468906159894
 186    -0.0022176068265305
 187    -0.00073636571485004
 188    -0.086210578229274
 189    -0.016067517365009
 190    -0.0052632115043006
 191    0.0074812261952456
 192    -0.00087939710892262
 193     0.039837636268094
 194      0.13486888875522
 195     0.069374819435736
 196    0.0021272831753851
 197      -0.0534161258848
 198    -0.0095235115104125
 199    -0.010819587528953
 200     0.044389718173802
 201     0.016469781369855
 202    0.00069418653037175
 203    -0.0010499757419679
 204    -0.00010510860011396
 205    0.0002533089346617
 206    -0.00076123942843026
 207     0.050300175953164
 208    0.00060846141227866
 209    -0.0028148501602482
 210    -0.0011306681533795
 211    0.0067055699639834
 212     0.010147149503526
 213    -0.0053643281592003
 214    0.0017384159255225
 215    0.0032731463774585
 216    0.00045186593240417
 217     0.027818378279338
 218    -0.0029016424821703
 219    -0.0032403799922596
 220    0.0034236435091922
 221    -0.0025169014114798
 222     0.084785586701881
 223     0.071347814476326
 224     0.026015406432205
 225    -0.031180689457997
 226      0.17603429969092
 227    -0.053511156448617
 228     0.020565657115703
 229    -0.093794136594119
 230     0.024689612158399
 231    -0.0057186128912342
 232    -0.00068041870219032
 233    0.0022310610641799
 234    -0.0066453507378097
 235    0.0027266288579357
 236      0.16928177952952
 237     0.026102445731434
 238    0.00018899070494721
 239      0.01570255542544
 240    0.0024150810234039
 241    -0.071305713859883
 242    -0.019395813685295
 243    -0.0023707760892886
 244    -0.0041922388882328
 245    -0.0050941717151251
 246    -0.0066158335025714
 247    -0.0049093876398094
 248    0.0014308735823115
 249    -0.0060870836414311
 250    0.0014928144152093
 251      0.11841548739831
 252     0.081140961310417
 253     0.046692810936003
 254    -0.099102825579482
 255     -0.13119203678011
 256    -0.063301757684899
 257      0.05835248455981
 258     0.085236822983109
 259     0.022882105578115
 260    0.0061744427795865
 261    0.0015183959403496
 262    0.0026124782975208
 263    -0.0014691336772693
 264    -0.0043182642463566
 265      0.12588608062831
 266     0.017924123301541
 267    0.0023524109234604
 268    -0.0035175061938401
 269    -0.012965770763131
 270     0.022649647396242
 271    8.0764415767362e-05
 272    0.00019677809727091
 273    0.0064014632443369
 274    0.0033261659584807
 275    -0.096676112246419
 276    -0.021520256338247
 277    -0.0057590738877906
 278    -0.0021970198083481
 279    0.0035124300773472
 280    -0.060563136160404
 281    -0.066588509358512
 282    -0.016989800683894
 283     0.021154227088447
 284     0.064256223719804
 285     0.011812583315565
 286    -0.0093477334735562
 287    -0.035728454752786
 288    -0.0087390358947173
 289    -0.0016784083259213
 290    0.00033116959474197
 291    -0.00069127260625651
 292    0.00069507397889912
 293    -0.0020210105132082
 294    -0.052892962422267
 295    -0.0062035568420412
 296    -0.00093288236947128
 297     0.001002451505585
 298     0.006605712256054
 299    -0.055904234042522
 300    -0.0082245088635884
 301    0.0026695546860286
 302    0.0039925493466298
 303    -0.0055596308057907
 304    0.0069801667875603
 305    0.0047795684615606
 306    -0.00080838496541911
 307    -0.0027838052648895
 308    0.00017680239963607
 309     -0.18428316272025
 310     -0.11681041949392
 311    -0.046627339264903
 312    -0.0014083615638323
 313    -0.060733987880474
 314    -0.053849656019213
 315    0.0034922066983614
 316     0.036942988447691
 317     0.021298366988613
 318    -0.0017593784056593
 319    -0.0010929284102153
 320    0.00012926370935482
 321    -0.0029316863993489
 322    -0.0011648253426453
 323     0.018168354675525
 324     0.010994698983235
 325    -0.00045859411462989
 326    0.00097203773749976
 327    0.0023975651497205
 328    -0.084664864324387
 329    -0.012872038049987
 330    -0.0080211353372447
 331    -3.7940259301643e-06
 332    -0.0073289629305714
 333    -0.059521814591345
 334    -0.0015327129538302
 335       0.0082849145514
 336    0.0015787189508079
 337    -0.0018659779915584
 338     0.077973567268203
 339      0.17862146326389
 340     0.096861748182125
 341     0.051376301758344
 342     0.046279806828944
 343     0.065692704390857
 344    -0.013191240983098
 345    -0.043638208933488
 346    -0.055928740839481
 347    -0.00030236717577986
 348    0.00066590061593148
 349    -0.0016248699911443
 350    0.0013600866755064
 351    -0.0037997898293138
 352     -0.01092653323318
 353    -0.013443465592305
 354    -0.0030988860913724
 355    -0.0011320145325976
 356    -0.0014925992344923
 357     0.042007841133727
 358    -0.00096086713365184
 359     0.001020444641361
 360    0.0011228870130856
 361    -0.0081930487303366
 362      0.10065897640282
 363    0.0081188017180346
 364    0.0090332164878988
 365    -0.0071428711406743
 366    0.0055551779174646
 Sym= A
 Ene=              27
 Spin= Alpha
 Occup=    1.00000
   1    -0.0067879308748205
   2     0.017683231867313
   3    -0.026941299560889
   4    -0.011141870045485
   5    0.0018726935104962
   6     0.014286026451482
   7     0.040647661282749
   8     0.056751141639841
   9    -0.028241169838883
  10     -0.10357874061708
  11     -0.16261923445828
  12     0.010852301110538
  13    0.0076102983959134
  14     0.009595459427129
  15    0.0089163589316112
  16      -0.0128134092147
  17    -0.00045446092693565
  18    -0.014306308739369
  19    -0.013918526090562
  20    -6.5520473375594e-07
  21    -0.0023587153846942
  22    0.0033521931660673
  23    -0.00086122690187237
  24    -0.0026828225462665
  25    0.00038165581205562
  26    -0.0003025184486202
  27    -0.0011793230387467
  28    0.00065639065465947
  29    0.0018769997550653
  30    -0.000432519370107
  31    0.00098252081721341
  32    0.0098306152054268
  33    -0.036316348464623
  34      0.11578312859046
  35    -0.093071558859007
  36     0.015887787348908
  37    0.0012687886712368
  38    0.0040693151477644
  39     0.050113320808955
  40     -0.01990609852157
  41     -0.02649168843418
  42      -0.1362002955551
  43    0.00030040231943519
  44    0.0025106021228677
  45    0.0019805508840438
  46    0.0041464218567572
  47    -0.0088729242119974
  48    -0.00030924950078991
  49    -0.010638773855591
  50    -0.011100282480114
  51    -0.0017129058893515
  52    -0.0040298489319596
  53     0.007331660276619
  54    -0.0028693927994096
  55    -0.0066167024201365
  56    -0.00082759797600969
  57    -0.0010192847443018
  58    -0.00038069861302608
  59    -0.00039444248134845
  60    -0.00074310726671855
  61    0.0015410889976135
  62    0.00096731290090126
  63    0.0040497300678362
  64     -0.14222642602233
  65     -0.11778025514252
  66    0.0058973646877293
  67    -0.0061718809350183
  68    0.0047986811746943
  69    0.0033181773784197
  70    -0.005645047866987
  71    0.0048934509019472
  72    0.00036689399696366
  73     0.001459325470569
  74    -0.0025492414661463
  75    0.00089660948018712
  76    0.0020126752629535
  77      0.09521156988114
  78      0.14911178507123
  79     0.042469515626736
  80     -0.04269367963349
  81    -0.054422076470478
  82    -0.001528710536762
  83     0.020091596113269
  84     0.025387532009742
  85    -0.0018451667489481
  86    -0.00097890152839566
  87    -0.00037977703707278
  88    0.00024603559171999
  89    -0.001648453226526
  90    0.00042455311224796
  91     0.057808890108229
  92    0.0015810253388887
  93    -0.0061298010347254
  94    0.0048676785910707
  95    0.0054226645900022
  96      0.04503489442686
  97    0.00023241349123334
  98    -0.00046589964219266
  99    0.0044050325310799
 100    -0.007298664289404
 101      0.09371754043359
 102     0.013282880915957
 103     0.001519623431857
 104    -0.012131306004191
 105    0.00091408125138514
 106    -0.034862800674158
 107    -0.072021681512205
 108    -0.033341951608576
 109     0.052746194320766
 110    -0.066850756541413
 111     -0.06384426605855
 112    -0.027470080595758
 113     0.038671916722954
 114      0.02670649582302
 115    -0.0038494920748471
 116    6.5158905082461e-05
 117    -0.0016048257907741
 118    -0.00032289651021439
 119    -0.0036572338878705
 120      0.05172394528084
 121     0.015700882329564
 122    0.0021701971373374
 123    -0.0011127008983093
 124    0.0020903510898842
 125    -0.089993906471363
 126     -0.01282667146979
 127    -0.0029887419629152
 128    -0.0035605894650107
 129    -0.0088351820890628
 130    -0.035237038865855
 131    -0.0027218609674209
 132    0.0026625261894476
 133    0.0051429742216614
 134    0.0022127619289144
 135    -0.065752260639614
 136    -0.086386201906173
 137    -0.020121283479179
 138    0.00028304829466797
 139     -0.02987790345487
 140     0.022272480940921
 141    -0.0014194135133634
 142     0.012730618183022
 143     -0.01039408213209
 144    0.00026883884877541
 145    -0.00033620074418722
 146    7.271040846797e-05
 147    0.00041194512160814
 148    5.8356494927158e-05
 149    -0.047285019920979
 150    -0.0067642679464859
 151    0.0010902929563804
 152    -0.0063181754768549
 153    -0.002480913593509
 154    -0.034467353634401
 155    -0.0053025520176084
 156    -0.0052295786336716
 157    0.0013108129611807
 158    0.0017261641952572
 159    -0.035604961101103
 160    -0.005862014412847
 161    0.0042511176819643
 162    0.0022116811117676
 163    0.0032868176565172
 164     0.093421349695104
 165      0.16656770056398
 166     0.022038807874443
 167      0.14140860719358
 168    -0.014710402217104
 169     0.031002438622423
 170    -0.080698018477311
 171    0.0012021435375044
 172    -0.018474967917687
 173    -0.0015901216692466
 174    0.00011506514415208
 175    -0.0010616974753513
 176    0.0004354747328062
 177    -0.0025044026382575
 178     0.076206185928581
 179    0.0069971601206157
 180    0.00037631525368575
 181    0.0091732064845827
 182    -0.0089648562983133
 183     0.064271118173609
 184    0.0032633895929625
 185    -0.0044234267645926
 186    0.0061833335684165
 187    0.0088354883599965
 188      0.14000193157116
 189     0.030310642359978
 190     0.007815524347632
 191    -0.015466210416436
 192    0.0020355399867898
 193    0.0060042514742927
 194    -0.022143662340547
 195     0.031736997098599
 196     0.064805891095192
 197    -0.087891211701687
 198     0.032226911752422
 199    -0.044529115243926
 200     0.059811463736666
 201    -0.011233013747759
 202    0.0020819450950994
 203    -0.0029000922140671
 204    0.00084921668016468
 205    -0.0009076490451168
 206    0.0021742870152362
 207     0.019638546979473
 208    0.0020128050923401
 209    -0.0024966635612934
 210    0.0020913296195268
 211    0.00027938111460902
 212    -0.020833885211154
 213    -0.0036888354669076
 214    -0.0037343207645277
 215    -9.7653883002694e-05
 216    -0.0023046082230645
 217    -0.089372967726196
 218    -0.017630336063114
 219    0.0072748093988479
 220    -0.0028536940615941
 221      0.00412825481198
 222     0.040636987639041
 223      0.10561949732759
 224     -0.00670958709024
 225     0.093321920598682
 226     0.096802412639898
 227      0.11235075225262
 228    -0.061807820754322
 229    -0.055930181900935
 230    -0.067411210551206
 231    0.00084731760616064
 232    0.0027976501607847
 233    -0.00082793397493367
 234    -0.0033137924688924
 235    0.00059340131110824
 236      0.11459844201832
 237     0.026784769370702
 238    -0.0030901817344333
 239     0.013608773927807
 240    -0.0038191856832377
 241      0.11108984965353
 242     0.019427925428172
 243    0.0021431741701433
 244    -0.0085361202032204
 245     0.010984947509341
 246     0.013349113602385
 247    -0.0004157024793705
 248    0.00048387339474351
 249    -0.004217215627969
 250    -0.0060914832360412
 251    -0.017792517746176
 252     -0.10952348718005
 253    -0.037709266694816
 254     0.064061103195937
 255    -0.034947470955155
 256    -0.057445101365299
 257    -0.033509351813564
 258     0.012520722840419
 259     0.036218645835325
 260    0.0026128722119216
 261    -0.00055816583334861
 262    0.0016572995840992
 263    -8.5306892005522e-05
 264    0.0032638203413813
 265     0.018172500511054
 266    0.0088330115994957
 267    -0.0023729864631497
 268    0.00070292296555769
 269    0.0005357138965699
 270    -0.097548281824109
 271    -0.013468936391884
 272    0.0079722750258906
 273    -0.0066335301984075
 274    0.0015563966237869
 275    -0.0068840984983986
 276    0.0038298123325854
 277    -0.0037265439877039
 278    0.00042231290474902
 279    0.0021782092623623
 280    -0.0032976590778445
 281     0.049957508900957
 282    0.0090469348626408
 283    -0.067469479387412
 284    -0.072291682698036
 285     0.014328060888602
 286     0.039539070661751
 287     0.039375159700681
 288    -0.0092400110056766
 289    0.00051497768135426
 290    -0.0015691545549472
 291    -0.001448046915141
 292    -0.00085041695644515
 293    0.0021126554168928
 294     0.029268967646203
 295    0.0021327621067222
 296    0.0023399124617833
 297    0.0001100539597246
 298    -0.0050135375781457
 299      0.08323303896661
 300     0.012913066051728
 301    -0.0026562542528157
 302    -0.0054935230650622
 303    0.0067411269070218
 304    0.0027788027799401
 305     0.001343304916184
 306    0.0013985710714676
 307    0.0038751787868229
 308    -0.00077652265551411
 309    -0.054506355643147
 310     -0.05266988810503
 311    -0.033069913597556
 312     0.050952999648017
 313    -0.015466165901806
 314     0.054725125916215
 315    -0.026997992225431
 316     0.012621955083715
 317    -0.037688538634512
 318    0.0010997260420094
 319    0.0027112405875985
 320    0.00066534011021558
 321    -0.00011744516987242
 322    3.3347677720181e-05
 323    -0.0075560538346341
 324    0.0030255428978201
 325    -0.0020829696373584
 326     0.001456724089744
 327    -0.0011473433946161
 328     0.039209498040492
 329     0.013168635413457
 330    0.0011684525167885
 331    0.0011294350281138
 332     0.001653271060648
 333    -0.037747161225559
 334    4.0364970557829e-06
 335    0.0026912845245459
 336    0.00016099553300654
 337    -0.0037229279537509
 338    -0.013523155076923
 339    -0.060927300942338
 340    -0.026245384704311
 341     0.089988236210703
 342    -0.0087637539395294
 343       0.0643337778621
 344    -0.053105814120938
 345     0.010911873676406
 346    -0.032351147441304
 347    -0.00076634853342891
 348     0.001901730098026
 349    -0.0024199507116301
 350     0.001948134026765
 351    -0.0040604085722089
 352    -0.072418184444326
 353    -0.010691696163744
 354    0.0026775060448456
 355    0.0077013603900249
 356    0.00023802826230478
 357    -0.037896231086559
 358    -0.0033775283594309
 359    -0.0049908317299079
 360    -0.001837990012277
 361    0.0024590468718547
 362     0.065758786908799
 363      0.01654164452483
 364    0.0032745537808422
 365    -0.0034336022721515
 366    0.0010748582832965
 Sym= A
 Ene=              28
 Spin= Alpha
 Occup=    1.00000
   1     0.014683396506625
   2    -0.037979585213953
   3      0.11705424369004
   4    -0.078384207497672
   5     0.017093372735033
   6    -0.040684922540879
   7    -0.017987878248216
   8    -0.075555763005912
   9      0.10004076564782
  10    -0.0077997991281496
  11      0.19903924885424
  12    -0.0088500819611846
  13    0.0069182682158768
  14    -0.030814059678572
  15     0.002591691924649
  16    -0.0050290795934601
  17    -0.0038374460801423
  18    -0.0052174142213833
  19    -0.0062252075986131
  20    0.00046820631324083
  21    -0.0033563025918534
  22    0.0052837271165471
  23    -0.00071130605240973
  24    -0.0035002552928708
  25    0.00044750097712797
  26    0.00094136155086589
  27    0.0024494885728331
  28    0.0011135687350667
  29    -0.0011258324322691
  30    -0.00091192407072097
  31    -0.0013703060564655
  32     0.011937656721449
  33    -0.035739294221724
  34      0.12967410846459
  35    -0.056447198908641
  36    0.0078444860248619
  37    -0.010424454979192
  38     -0.09150430501944
  39    -0.031385822677248
  40     0.072098306937744
  41      0.25851087253292
  42     0.045801872542783
  43     0.012252175455416
  44    -0.038321313576474
  45     0.021001402836645
  46    0.0067195468570509
  47    -0.0067853665581085
  48    -0.0016841699755821
  49    -0.0097927278542996
  50    -0.0066947299479859
  51    0.0018831156121493
  52    -0.0018912111202976
  53    0.0027968221062979
  54    -0.0011305804749725
  55    -0.00034785131697476
  56    7.8989702747671e-05
  57    0.00062600878671098
  58    -0.0027138471793256
  59    -0.0019214025406133
  60    0.00025596897866571
  61    -0.0002884920253627
  62     0.000206345451173
  63    -0.062671598591626
  64    -0.095285110221243
  65    -0.067465091044352
  66     -0.01046314755384
  67    0.00054786477300878
  68    -0.0060661763508475
  69    -0.0080891401114745
  70    0.00059345936970273
  71    -0.0085183473292755
  72    0.00049280562602589
  73    0.00093902019112011
  74    -0.0015873358471128
  75    0.00044672553895461
  76    0.0014407601444155
  77    -0.059352443728616
  78     -0.03293436849833
  79    -0.038123680594751
  80    -0.090749015899175
  81     -0.02339249059808
  82     0.010858495443709
  83      0.06273281853899
  84     0.016677627659459
  85    0.0015807400361388
  86    -0.00034601962746032
  87    -0.0014906534538757
  88    0.00030123834158876
  89    0.00062380788268391
  90    -0.00069536635163289
  91     0.043303891059185
  92     0.011138339007723
  93    -0.0022087850304908
  94    0.0024167462603249
  95     0.002278350590448
  96    -0.0090929701827629
  97    0.0035200502446825
  98    0.0029260030134845
  99    0.00035092952619294
 100    0.00049617113357665
 101    0.0081899833623017
 102    0.0078407471715413
 103    0.0024987625305331
 104    -0.0007391171053142
 105    -0.00060638195977746
 106     0.015725325437059
 107    -0.054740639262645
 108    0.0011794761689546
 109    -0.070809161809468
 110      0.10028841948683
 111     0.030553022343504
 112     0.038896129379842
 113    -0.057673392447302
 114    -0.0085646182236524
 115    0.0038808606280626
 116    -7.258429163023e-05
 117    0.0016769065288674
 118    0.00025456451425547
 119    0.0042652738516179
 120     -0.11778938357229
 121    -0.020785914165325
 122    -0.0088368987465419
 123    0.0067369911407125
 124    -0.000395826867213
 125     0.038203734380126
 126    0.0079973235571381
 127    0.0026891723646179
 128       -0.001440600379
 129    0.0025398275714596
 130    -0.0081084439629515
 131    -1.1112582128345e-05
 132    0.0040585008484361
 133    -0.0026131861179894
 134    -0.0016183368025057
 135    -0.049957968271256
 136     -0.16819899188654
 137     -0.08320269550684
 138    -0.098244742224087
 139     0.060720589180375
 140      -0.0447285219882
 141     0.052002511148185
 142    -0.045755432421524
 143      0.04778078466433
 144    0.00035423934506828
 145    0.0046256906867002
 146    0.00093438209410458
 147    -0.0023411995180727
 148    -0.00026002129275363
 149    -0.0042568552949094
 150     0.010495957395848
 151    0.0035652509319302
 152    -0.0033447265490392
 153    -3.8957880997179e-05
 154     -0.11537897823184
 155    -0.012257345890046
 156    -0.010859930540983
 157    -0.000638819671786
 158    0.0077738950931958
 159      0.01529806765804
 160     0.012825736252612
 161    0.0032850526157152
 162    -0.0017345840345188
 163    0.0005874774905566
 164    -0.024818926695472
 165     0.021016053819049
 166    0.0047456541937341
 167     0.012982556385585
 168     0.092090453065315
 169     0.028036487273168
 170    -0.011262519500032
 171    -0.051184181091266
 172    -0.012728206556482
 173    0.0024113086492188
 174    -0.0011949451460693
 175    0.00098677270424379
 176    -0.0011138736460491
 177    0.0031979114342379
 178     0.042149607281549
 179    0.0043280469223314
 180    0.0018184688026221
 181    0.00035858909243576
 182    -0.0048882532659119
 183       0.0608875905092
 184     0.011485647056815
 185    -0.00022181371622772
 186    0.0013827356955744
 187     0.006539473321732
 188    -0.045500305953314
 189    -0.013836789607389
 190    -0.0033656529764144
 191    0.00039957302481275
 192    -0.0020776616342248
 193     -0.05021618753523
 194    -0.097881100447168
 195    -0.054723141481533
 196     -0.02984543667504
 197     0.038399851102638
 198    -0.038005103788798
 199      0.02588219401052
 200    -0.035612634620961
 201     0.017117565762339
 202    -0.0016112244153043
 203     0.002369800678452
 204    -0.00086680843394637
 205    0.00049667074166847
 206    -0.0014862131615411
 207      -0.0578900559166
 208    -0.0037121584197688
 209    0.0036224419525325
 210    0.0022458158675093
 211    -0.0057079553559713
 212    -0.030363522887997
 213    0.0002480952859746
 214    -0.0026183586693067
 215    -0.0043840658797006
 216    -2.1833287325061e-05
 217     0.015566436588229
 218    0.0099579646795738
 219    0.00022288767174783
 220    -0.00028976222718257
 221    0.0015525609297136
 222    -0.0081511519702826
 223     0.018098549880037
 224    -0.012436807324748
 225      0.13119056703798
 226    -0.030605499349041
 227    -0.057127948574572
 228    -0.082286882473866
 229     0.017474671521006
 230     0.027742819320584
 231    0.00028346102998969
 232     -0.00387158884078
 233    0.0005304244714258
 234    0.0041493779955482
 235    -0.001972589235794
 236    -0.025163958547315
 237    -0.0043789348134472
 238    -0.0044618402972326
 239    -0.00049106110785913
 240    0.0022929787646862
 241    -0.0034643524564689
 242    -0.0020782112966579
 243    -0.0047429550077551
 244    0.00042252563556643
 245    0.0024314859171071
 246      0.11783857870394
 247     0.020819285848655
 248    0.0083960443510032
 249    -0.003224124531933
 250    -0.0071706163003894
 251    0.0048441213499973
 252      0.01757038607311
 253     0.028337398296714
 254    -0.037084515401445
 255    -0.0056370177716692
 256     0.068207236309629
 257     0.019684200868313
 258     0.015132617041784
 259    -0.045071898505725
 260    -0.0016335782321713
 261    0.00012745597131766
 262    -0.00089412503018397
 263    -5.3568370069849e-06
 264    -0.0016788850605796
 265    -0.040752100401787
 266    -0.010201028218227
 267    0.0016221005143429
 268    0.0021874113606133
 269    0.0028926703674497
 270     0.028933896218628
 271    0.0025403608204451
 272    -0.0016335122781165
 273    0.0023271304852224
 274    -0.0017376667686415
 275    -0.021243260819611
 276    -0.0065012747353948
 277    -0.001096778361838
 278    -0.0019446108909703
 279    -0.0019297912710695
 280     0.089389205948996
 281      0.12439314879245
 282     0.029850247721422
 283    -0.086605982040339
 284      0.06736942475444
 285    -0.072801404036708
 286     0.043208065084184
 287    -0.028999390255036
 288     0.038635037924492
 289    -0.0011296304276748
 290    0.0014124104324653
 291    0.0012187506806633
 292    0.00066045463974681
 293    -0.0040293137670468
 294     0.065531111598026
 295    0.0082404961792974
 296    0.0025336400624961
 297    -0.0076349391807381
 298    -0.0070483204652667
 299    -0.0066622385209917
 300    -0.0054640561241576
 301    0.0031423094349064
 302    -0.003639233396411
 303    0.0031612777718937
 304       0.1340162030044
 305     0.023286954046109
 306    -0.0092298071419788
 307     0.012533368987026
 308    0.0013320465490804
 309    -0.042236491197509
 310     -0.17877459842562
 311    -0.089871101693653
 312    -0.095103559366521
 313    -0.024922315761678
 314     0.061860869830149
 315     0.052864907906493
 316     0.032543006362991
 317    -0.060051463453594
 318    -0.000568088780796
 319    -0.0038489276150109
 320    -0.00024664362216441
 321    0.0022925292702622
 322    0.00018762305985207
 323    -0.063273821099313
 324    0.00052679412352207
 325    0.0012998828441185
 326    0.0095972097433499
 327    0.0010029907005238
 328    -0.079797817203124
 329    -0.0083001078355086
 330    -0.0045599211748375
 331    -0.0019594296898695
 332     -0.01002586859249
 333     0.032834430617906
 334     0.014394883971419
 335    0.0012110095138681
 336    0.00019050180339205
 337    -6.9405762153214e-05
 338    -0.014392905950189
 339    -0.022197002185098
 340    0.00078461515714456
 341      -0.1011392949176
 342    -0.080746794232164
 343    -0.015919817950486
 344     0.056884904837679
 345     0.047102901417384
 346    0.0036790780939338
 347    -0.0028060694340914
 348     0.001827153099742
 349    0.0030896066553566
 350    -0.0025436284415636
 351    0.0037138866412668
 352     0.095641672246811
 353     0.019933000599754
 354    -0.0033293258262683
 355    -0.0070912070324221
 356    -0.0023316648947176
 357    -0.050085457037606
 358    -0.0082480424837866
 359    0.0010177389689108
 360    0.0010250287008264
 361    0.0058378194756644
 362    -0.049754250257218
 363    -0.007159361906201
 364    -0.0021173987290107
 365    0.0054950793431012
 366    -0.0019031413214958
 Sym= A
 Ene=              29
 Spin= Alpha
 Occup=    1.00000
   1    -0.0069699740058016
   2     0.020280547099305
   3     0.017879150602583
   4    -0.068266792240328
   5     0.011063701907031
   6     0.048667855049187
   7     -0.12308032937354
   8    -0.032048890078924
   9     -0.12711929548973
  10      0.38983370466111
  11      0.11656965060041
  12    -0.0063072395460997
  13    -0.029581961072078
  14    0.0052509255559106
  15    -0.0075694755397684
  16     0.001631823536126
  17     0.014388610437208
  18    0.0051444576420062
  19    0.00029492023207282
  20    -0.0015017936501133
  21    -0.0066186026567827
  22     0.011083382242937
  23    -0.0060567675287503
  24    -0.0099750338747852
  25    0.0028409683317178
  26    0.00086389791476655
  27    -0.0015204877961066
  28    0.00028720481661532
  29    0.0027213605063869
  30    -0.0025580525585398
  31    -0.0013604356871653
  32    -0.011182168809165
  33     0.039658817847432
  34     -0.11730314767619
  35    -0.0082697764570739
  36     0.008622928220768
  37     0.036941635645566
  38    0.0085644174440506
  39    -0.064040224194231
  40     -0.13279388916541
  41    -0.014544270835367
  42      0.21271387905941
  43    0.0053854972930577
  44     0.019255831048478
  45     -0.01558902344273
  46    0.0049542184396179
  47     -0.01353094753635
  48     0.005561854618357
  49     -0.01212070124022
  50    -0.016228901875515
  51    -0.0006748632683388
  52    0.0013468244551373
  53    -0.0011269352888965
  54    0.00099671615170262
  55    0.0012991526520532
  56    -0.00025485877995436
  57    -4.7320706044985e-05
  58    0.0022387270564773
  59     0.001611891354205
  60    -0.00079667574088623
  61    0.00046446961578616
  62    -0.00048995315917363
  63     0.028383650142997
  64     -0.12797290075267
  65     -0.10397147569134
  66    -0.0069065594515162
  67     0.018078130308377
  68     0.010075742806015
  69     -0.01318938240012
  70     0.029105153350153
  71     0.018519126519553
  72    0.00037357181022102
  73    0.0012729049134746
  74    -0.0020637927688711
  75    0.00092899837291238
  76    0.0018634042451471
  77     -0.01016353541659
  78    -0.074784626392116
  79    -0.056668039988567
  80    -0.062410575390194
  81    -0.0093301334517752
  82     -0.09519776904211
  83     0.049854497260301
  84     0.016756851574471
  85     0.059142328544879
  86    0.0025192781851004
  87    0.0022897874070857
  88    -0.00093850710733365
  89    -0.0001425454004106
  90    -0.00026325129989564
  91     -0.03114677485232
  92    -0.00035711702380895
  93    0.0049510916855663
  94    -0.0015967492106256
  95    0.00099787407946436
  96      0.05849426169416
  97     0.014857068517276
  98    -5.1755868555561e-05
  99    0.0017444242265244
 100    -0.003453370083755
 101    -0.020471625712961
 102    0.0054199406274189
 103    0.0016746562024565
 104    0.0027489493935021
 105    0.0031733750436595
 106    0.0078554792156308
 107     0.078161689796435
 108    0.0064297163266435
 109    -0.0046764674984113
 110     -0.10925821121108
 111     0.076808116370667
 112    0.0028580490940997
 113     0.069603429994457
 114    -0.046254513268226
 115    -0.0020287945208429
 116    -0.00058793794289981
 117    -0.00039115348001028
 118    0.00048854733781414
 119    6.0291333136278e-05
 120     0.073695433260661
 121     0.012658164009414
 122    0.0084251870880561
 123    -0.0041706494291289
 124    -0.0034743017106332
 125     0.035852951922344
 126    0.0034278206518511
 127    0.0010431669886108
 128    0.0065905768415215
 129    0.0035600251975945
 130     0.075897502777615
 131      0.01028913283269
 132    -0.0095946505036043
 133    -0.0024061948595998
 134    -0.0019411493034724
 135     0.039831771167307
 136      0.14724524591617
 137      0.01727591027247
 138     0.063912787017786
 139     0.020306330484608
 140     -0.13085266720885
 141    -0.034996479540151
 142    -0.011124181617175
 143     0.077871282695865
 144    0.0008674888468272
 145    -0.0017493610565907
 146    0.00011752382488094
 147    0.0039897097511795
 148    0.00047680580201975
 149     0.030068383483539
 150    -0.00080133194574072
 151    -0.0029522531760016
 152    0.0058956853522695
 153    0.0058214704469982
 154      0.13965906180723
 155     0.022841190920154
 156     0.015695046393544
 157    -0.002252035529154
 158    -0.0046421560882089
 159     0.080451530577103
 160     0.011358342263053
 161    -0.010911354770441
 162    -0.0030658380514227
 163    -0.0044959545669364
 164    -0.019388721847029
 165    -0.058806462071732
 166    -0.011775991227012
 167    -0.0084736855201026
 168    0.0043107241115483
 169    -0.030327448763577
 170    0.0065464664663311
 171    0.0026362585513317
 172        0.017035965283
 173    -0.00035990300448712
 174    -0.00057687351787806
 175    -0.00086881604352004
 176    -7.0280479513925e-05
 177    0.0003795499423597
 178    -0.0025318107604032
 179    0.0030129090299479
 180    2.941720725479e-05
 181    -0.00099051590779373
 182    0.0014616220598203
 183    -0.036998340030866
 184    -0.0061764800285162
 185    5.6480874129194e-05
 186    -0.0033964465172073
 187     -0.00360113050901
 188    -0.029269179641991
 189    -0.00020672285159796
 190    -0.0027323212326596
 191    0.0031249369310414
 192    0.00081828278266688
 193     0.015351652500895
 194    -0.0007289252999055
 195    -0.001805492140516
 196    -0.030603772408486
 197     0.015560811768811
 198    -0.040290731135242
 199     0.019891616456814
 200    -0.0070048880520634
 201     0.018354391680565
 202    -0.0008673501207958
 203    0.0015331452201693
 204    -0.0012395599465257
 205    0.0010866206618466
 206    -0.001442012081776
 207    -0.024117474451636
 208    -0.0062387769050296
 209    0.0023283011917448
 210    0.00022585790959128
 211    -0.0013078955347353
 212    -0.014158769174865
 213    -0.0043914235771384
 214    -6.9004984454916e-05
 215    -0.0017404857761543
 216    0.0013338800647351
 217     0.040925935652327
 218    0.0067475563609585
 219    -0.0032277061606937
 220    0.0016688228601541
 221    -0.0010260377076771
 222     0.050381641218444
 223      0.11287125982492
 224     0.027823009372874
 225     0.031847054750806
 226     0.082257684600823
 227     0.015241003614794
 228    -0.019230938437859
 229    -0.046367862448235
 230    -0.0067714160152943
 231    -0.001605499888938
 232    -1.3310360597175e-05
 233    0.00062669121372597
 234    -0.0030984010269961
 235    0.00085941473840633
 236      0.10392144385373
 237     0.015144072195436
 238    -0.0010935500378065
 239     0.011697441580597
 240    -0.0005940023034347
 241     0.031946274110069
 242    -0.00074276112329406
 243    0.00079523314211748
 244    -0.0047592065597442
 245     0.004922251302514
 246     0.028957293324803
 247     -0.00191533644298
 248    0.0033439511300191
 249    -0.0037528996938583
 250    -0.0036364142253787
 251    -0.034425238961601
 252    -0.090739470576107
 253    -0.054627260276008
 254    -0.052888401109065
 255     0.016091302116465
 256    -0.025510855751403
 257     0.024694542704914
 258    -0.017820236927971
 259     0.027111024031779
 260    1.1489062733586e-05
 261    0.0006075126177551
 262    0.00044907605834731
 263    -0.00035665139507158
 264    -0.0027382123229268
 265    -0.015032286030789
 266    0.0023626029282691
 267    0.0020028842527071
 268    0.0015536158420284
 269    0.0028170674260839
 270     0.014881351124134
 271     0.014611790577628
 272    0.0011570760067847
 273    -6.5051107631175e-05
 274    -2.8808808980992e-05
 275    -0.058324486787481
 276    -0.0057729098898253
 277    -0.0049139169631458
 278    -0.0050722680883774
 279    0.00077261020841169
 280     0.042319156245782
 281      0.12973495372561
 282     0.018774103083962
 283     -0.07763977493944
 284    -0.012731451167196
 285    -0.020252625803545
 286     0.046222307742851
 287    0.0086607221759502
 288     0.015462560386235
 289    -0.00020336203573941
 290    -0.00018469890663889
 291    -0.00025198986220759
 292    -0.00013642697485135
 293    -0.00098749500713297
 294     0.057400126842595
 295    0.0025316732765162
 296    0.0022103283540054
 297    -0.0037099520319665
 298    -0.0077707862137514
 299     0.062981867811665
 300    0.0042676883673376
 301    -0.0017503583578434
 302    -0.006617437664959
 303     0.006594294959185
 304     0.074939660546608
 305     0.013389281900284
 306    -0.0045216116120712
 307    0.0092542733159669
 308    -0.00050900619565648
 309     -0.03032748495204
 310    -0.012747963082502
 311     0.012606755109855
 312     0.014605225464802
 313     -0.01336131420395
 314    -0.076594490144311
 315    -0.010784940536655
 316    0.0046391373466236
 317     0.047814867373481
 318    -0.0012853576290096
 319    -0.00019452008904127
 320    0.00036695104008899
 321    -0.0024544565650211
 322    -0.00078658698801813
 323     0.022442851210596
 324    4.0670347455829e-05
 325    -5.4694595781156e-05
 326    -0.0014144450560627
 327    0.0022811822367619
 328    -0.043807308696705
 329    -0.012630643786441
 330    -0.0044818030523377
 331    -0.00085610080163682
 332    -0.0021990598446757
 333    -0.040716419932769
 334    -0.0080054369075375
 335    0.0046196997713114
 336    0.00031320539083875
 337    -5.7381382037561e-05
 338     -0.03066905148169
 339     -0.11868705568778
 340    -0.012543626612811
 341     -0.01888253262971
 342      0.11945514628882
 343    -0.0075253843143078
 344     0.010564163792848
 345    -0.071698669661366
 346    0.0048523374196744
 347    0.0029150213581019
 348    -0.0031861557597161
 349    -0.00077192574641653
 350    0.00036050868097431
 351    -0.00017520176082556
 352    -0.098571426295886
 353    -0.013857459010425
 354    0.0088593885058408
 355    0.0075438487412707
 356    0.0039392364081745
 357    -0.0044824656248432
 358    0.0030459926896081
 359    -0.00045205553107837
 360    -0.0049571763228614
 361    0.0029185614934658
 362    -0.091332423640001
 363    -0.013248127179221
 364    -0.0096280408459365
 365    0.0024293408010571
 366     -0.00631462900433
 Sym= A
 Ene=              30
 Spin= Alpha
 Occup=    1.00000
   1    0.0084299625333319
   2    -0.025483134509659
   3      0.02954585685822
   4    0.0059631163647013
   5    0.0011653708822834
   6    -0.043350913575137
   7      0.13518544131224
   8     0.037303827074164
   9      0.11516881513837
  10     -0.40925469165315
  11     -0.12173256226882
  12    -0.0041016417716639
  13     0.036794143788036
  14    -0.0060231778543817
  15    -0.010790374762666
  16    0.0047154346844296
  17     0.018592039938748
  18     0.011012378992315
  19    0.0039676405030448
  20    0.0015906092137666
  21    0.0041157699059104
  22    -0.0072216293760686
  23    0.0026270446486917
  24    0.0063369492088803
  25    -0.0018507715780526
  26    -0.00064643761346396
  27    0.0017258661175872
  28    0.00010034509448344
  29    -0.0018720681990182
  30    0.0018012885781166
  31    0.00056076532564065
  32     0.014639401487475
  33    -0.049844739073207
  34      0.15849429557763
  35    -0.056587843239831
  36    0.0050493701377511
  37     -0.04771939949582
  38     0.033364724728378
  39     0.072193478975747
  40      0.15456032563394
  41     -0.10106523251752
  42     -0.22207534695943
  43    -0.012510641515361
  44    -0.0066085435029776
  45    0.0028011034319539
  46    0.0059219712543255
  47    -0.0016556751948228
  48    -0.012800787527698
  49    -0.0060607696779273
  50    -0.0014150936981414
  51    -0.00075818329442283
  52    -0.0047742198518631
  53    0.0067794891510749
  54    -0.0020088846554128
  55    -0.0062042176271379
  56    -0.00026666872125002
  57    5.7795625930524e-05
  58    -0.00059304106877265
  59    -0.0016645686309982
  60    -0.0009394316006098
  61    0.00039788795560937
  62    -0.00026313736918007
  63    0.0019464738069183
  64    0.0024307314218423
  65    0.0058725001403496
  66     0.013765043648097
  67    -0.018790671323409
  68    -0.0075126301577858
  69     0.021223667399291
  70    -0.030906779886057
  71    -0.011983054155324
  72    -0.00019622968231909
  73    8.0470399917742e-05
  74    7.9471389196947e-05
  75    -9.8936768805155e-05
  76    -7.1423957609247e-05
  77    -0.098692020494059
  78     -0.13260538068755
  79    -0.025348663788264
  80     0.072375503376213
  81     0.014464335970049
  82     0.088800489068296
  83    -0.037704153579885
  84    -0.014516979022242
  85    -0.047449234749147
  86    -0.0021273654215554
  87    -0.0021593702061701
  88    0.0010371351807221
  89    0.00030585000197099
  90    4.9799704959863e-05
  91    -0.041701529937494
  92    -0.0030532190430236
  93     0.003674253520011
  94    -0.0025449543985624
  95    -0.007893797825994
  96      -0.1218757952513
  97    -0.020681310800443
  98     0.002067228033261
  99    -0.0050056469488748
 100     0.013873508697141
 101    -0.051077491001928
 102    -0.0052489576594855
 103    -0.0025569925865405
 104    0.0082719361146574
 105    -0.003429105980823
 106      0.11031564347566
 107      0.20443547722956
 108     0.057439184326379
 109      0.03794466229138
 110    -0.024240016969752
 111      0.04813899454704
 112    -0.018188566122797
 113    0.0031971262023887
 114     -0.02493822746753
 115    0.0004831739038485
 116    0.00063922104667886
 117     0.000735729527409
 118    -0.0003079982098411
 119     -0.00155991796184
 120      0.10140760345481
 121     0.012835928653955
 122     0.010659677567417
 123    -0.008983619870609
 124    -0.0029732301997768
 125     0.091814282818365
 126    0.0058693947161061
 127    -0.00010794599223423
 128    0.0073385508276518
 129     0.011294807100691
 130     0.051653317829581
 131    -0.00032832593041141
 132    -0.009668524927522
 133    -0.003441484411213
 134    -0.00045627307558345
 135     0.062939806896972
 136     0.096247570086294
 137     0.027793242240198
 138    -0.016239586416904
 139     0.073691590700835
 140    -0.028303936283455
 141     0.008931333741455
 142    -0.043807533507199
 143     0.012406580466286
 144    -0.00097430089702621
 145    0.00056771151025937
 146    0.00038031216192232
 147    -0.0021513578351155
 148    -0.00040728638123747
 149     0.082489259087479
 150      0.01072604512813
 151    -0.0010351573617012
 152    0.0095215034779023
 153    0.0033808038837822
 154     0.023860755373008
 155    0.00044783371142502
 156    0.0050877021025401
 157    -0.002658200261157
 158    -0.0010477028602367
 159     0.042791182672356
 160    0.0038088410485119
 161    -0.0049303198334668
 162    -0.0038290982580049
 163    -0.0039711713258899
 164    -0.095794340763244
 165     -0.15647636905312
 166    -0.045020336363925
 167    -0.055739458747889
 168    -0.061623899055572
 169    -0.021978275917824
 170     0.028026413096011
 171     0.025748137488287
 172     0.011295432309012
 173    -0.00095028371860776
 174    0.00041801431256655
 175    -0.00015203761105725
 176    0.00054174696961976
 177    -0.0013659944475509
 178    -0.089515628487778
 179    -0.010402419933959
 180    -0.0042114172950481
 181    -0.0066027012229051
 182     0.009970570933641
 183    -0.088303935171437
 184    -0.0081133686564063
 185    0.0021901950477946
 186    -0.0041655433572107
 187    -0.011735202896783
 188    -0.039577341564286
 189    -6.0046332779049e-05
 190    -0.0023767962175959
 191     0.008222327198144
 192    2.5762936333475e-05
 193    -0.012862249004745
 194    -0.035686061567833
 195    -0.0015728189118509
 196     0.034400051203101
 197    -0.010223497789543
 198     0.040503643648905
 199    -0.021625652747343
 200    0.0042168714167941
 201    -0.017917959307894
 202    0.00053287838180167
 203    -0.0013387388409469
 204    0.0013768096373171
 205    -0.00085201701820305
 206    0.0015577231782224
 207    0.0096114592610722
 208      0.00527494413634
 209    -0.0015885777643441
 210    -6.3047120287231e-05
 211    -0.0005029076858783
 212    0.0077288418808283
 213    0.0033434984677236
 214    -0.00080521633801176
 215    0.00078635835159703
 216    -0.0015997196579449
 217    -0.052973794212171
 218    -0.0074238963076421
 219    0.0046524411557207
 220    -0.0027298380475681
 221    0.0016754908313052
 222     0.046351542621041
 223      0.09666356904116
 224       0.0281568667999
 225     0.058541048082754
 226    -0.0058532998508559
 227     0.038185900021867
 228     -0.02631202018311
 229    0.0041109740442528
 230    -0.019969880624583
 231     0.001289087533466
 232    0.00064612792111811
 233    -0.00074872657939325
 234    0.00081885929646485
 235    -0.00049064261834207
 236     0.025270326780006
 237    0.00081701352801603
 238    -0.002585167594323
 239      0.00516680751282
 240    -0.0010286593026626
 241     0.073214499203096
 242     0.012728698475825
 243     0.000990197936101
 244    -0.0033291971172815
 245    0.0088071826546335
 246     0.048326821561313
 247    0.0055740715127327
 248     0.003973055856423
 249    -0.0021071953835801
 250    -0.006306906289335
 251    -0.021285196686503
 252    -0.083676021793499
 253    -0.020050409629574
 254     0.059926161994569
 255     -0.01608864922268
 256    0.0057664911019027
 257    -0.029243841207503
 258    0.0072704377133671
 259    -0.0047046342736646
 260    0.00062519545243922
 261    -0.00058193215449755
 262    4.4356022819807e-05
 263    0.00024424527373838
 264    0.0028250425417907
 265    -0.025350125269897
 266    -0.00076513134919047
 267    -0.0021202039111923
 268    0.0020448719257875
 269    0.0038854400922333
 270    -0.075304608727387
 271    -0.010675697160013
 272    0.0059150438974646
 273    -0.0058221770751974
 274    -0.00029231147541052
 275     0.006952606220803
 276    0.0052690576527146
 277    -0.0022621953666928
 278    0.00081264551596618
 279    6.9791691462254e-05
 280     0.042298543063093
 281      0.04358103460746
 282    -0.0014431079814623
 283    -0.077891739810838
 284    -0.050129426282748
 285    -0.047220989492663
 286     0.051139285876384
 287     0.028130737586969
 288     0.025752510701967
 289    0.0010936129014923
 290    5.2483812609122e-05
 291    0.00067455434320945
 292    -0.00053028041233959
 293    0.00064246438089286
 294     0.064802211923587
 295       0.0124960048266
 296    0.0024540193213286
 297    -0.002725796054988
 298    -0.0073560940101852
 299     0.040885879694677
 300     0.007362473284406
 301    -0.00020359595043532
 302    -0.0027127254352702
 303    0.0058662212403044
 304     0.023487146283821
 305    0.0023331963446068
 306    -0.00034495278077472
 307     0.005203189156956
 308    0.0016460177176092
 309    -0.036993303882236
 310     -0.11609822795513
 311    -0.046427145711688
 312    -0.014755064813853
 313     0.042560240692857
 314     0.037928842972206
 315    0.0093445287921304
 316    -0.018870820420401
 317     -0.02988632651739
 318    0.0012246566376378
 319    -0.0001391315326709
 320    -0.00018041490150714
 321    0.0023758772180472
 322    0.00076594357572652
 323    -0.077867625128341
 324    -0.005778057825185
 325    -0.0016835626844001
 326    0.0093072038395414
 327    0.0011792101375963
 328    -0.014159432544446
 329    0.0028592880090363
 330    -0.001828175226297
 331    -0.0025739363020189
 332    -0.0032837993803806
 333    -0.011753566580352
 334    0.0058701452194266
 335    0.0031092239488312
 336    -0.0019025234924065
 337    -0.0023049375237308
 338    -0.00089391004231376
 339    0.0054400663678439
 340    -0.019806582780404
 341     0.020065624074208
 342    -0.085418801138292
 343     0.030589923358914
 344    -0.013677897026675
 345     0.056133107293894
 346     -0.01278333473616
 347    -0.0023564486139356
 348    0.0030686873071013
 349    4.3078701877084e-05
 350    -6.5489385341992e-05
 351    -0.00024783006898671
 352     0.037090942269682
 353    0.0079300958905194
 354    -0.003359944818274
 355    -0.0014615762219932
 356    -0.0024884883556787
 357    -0.037188173421222
 358    -0.0062705506067801
 359    -0.0023066939418948
 360    0.0012924179347985
 361    0.0023486036496495
 362     0.054552685904577
 363     0.011270623250839
 364    0.0051209029927422
 365    -0.0010465129646993
 366    0.0022125351681557
 Sym= A
 Ene=              31
 Spin= Alpha
 Occup=    1.00000
   1     -0.01167178336336
   2     0.047917516924635
   3    -0.085153742504245
   4     0.039090300412906
   5    -0.0046153784399756
   6    -0.036373559860263
   7    -0.036817613628612
   8    -0.0094663364455987
   9     0.089548226523715
  10       0.1182060127862
  11     0.038479523143472
  12    -0.013904610214286
  13    -0.024064964498509
  14      0.01340182752035
  15    0.0035094021154931
  16    -0.00093281854547258
  17    -0.0045894675446474
  18    -0.0031224071853431
  19    -0.0002974648670073
  20    -0.0011770192832421
  21    0.0019754010534574
  22    -0.0021776547149239
  23    0.00029250368250222
  24    0.0014813691785782
  25    0.0011896043173983
  26    0.00063567728823207
  27    -0.0018673054934122
  28    -0.0017714369332706
  29    -2.7179283664307e-05
  30    -0.0011876855404877
  31    -0.0005163447020645
  32    -0.004862337137713
  33     0.021570208556232
  34     -0.10705850877318
  35      0.08263781624517
  36    -0.0086476339368964
  37    -0.050310245689033
  38     0.058400372402031
  39     0.018250405512629
  40      0.15703573337764
  41     -0.14997030372709
  42    -0.043056091498325
  43    -0.029563485632849
  44     0.038682407664473
  45    -0.0034242156737827
  46    0.0083823588698864
  47    0.0023204339030227
  48    -0.021382126490807
  49    -0.0033850789789214
  50    0.0044254501815468
  51    -0.0012087240268216
  52    0.00084254819178243
  53    -0.0019479399882871
  54    9.4304075836626e-05
  55    0.00028022319030934
  56    -8.9507330142015e-05
  57    0.0010823687345706
  58    0.0029524645529874
  59    0.0001973355336047
  60    -0.0023220116516558
  61    -5.6631601865349e-05
  62    -0.0020232247062808
  63     -0.10798955219583
  64     0.037098921256414
  65      0.01953386303398
  66    0.0029277169266636
  67    -0.0026071515088093
  68    0.00044295323461912
  69    0.0068633232810322
  70    -1.7787981068335e-05
  71    0.0020351548349219
  72    -0.00033987055435491
  73    -0.00019037832167472
  74    3.3445505049983e-05
  75    -0.00028761361370417
  76    -0.00059552307800416
  77    -0.010365987413435
  78     0.042300955807715
  79    0.0049950582940564
  80     0.001249757457769
  81    -0.066162115007643
  82    0.0047179229535015
  83    0.0013646103376577
  84     0.038892110176575
  85    -0.0033910913288389
  86    -0.0020197518897171
  87    -0.00025802495839462
  88    0.00013338221014841
  89    -0.0024402642752913
  90    0.0012049619606669
  91    -0.0019297296817299
  92    -0.0025809306624214
  93    -0.00010062878805976
  94    0.0022204214623178
  95    8.1419892887991e-05
  96    -0.0054601701190408
  97    -0.0015168558064312
  98    -0.00054028253908701
  99    0.0018505324265681
 100    -0.00016305054977809
 101     0.067928698539401
 102     0.011543100906489
 103    -0.00021832121913764
 104    -0.0066627264787343
 105    0.00011677762316849
 106     0.016603050403649
 107    -0.040373969342657
 108    -0.027330022946108
 109      0.00374716128115
 110    -0.019429664839331
 111     0.021997348601513
 112    -0.0025605585420863
 113     0.021984022179315
 114    -0.019375384435175
 115    -6.584820596989e-05
 116    3.9182495841278e-05
 117    -1.7290395492009e-05
 118    2.5090611244602e-05
 119    -0.00024601316209544
 120    -0.0024704952513703
 121    -0.0024591578883254
 122    -0.00086951255567175
 123    0.00057387985959327
 124    -0.00059659368080626
 125    -0.0031100710578304
 126    0.0015300159824707
 127    -0.00019480530738313
 128    0.00018201073777423
 129    -0.0010960684774242
 130    -0.0068029261520375
 131    0.0036140573022046
 132    0.00089208872535685
 133    0.00075083254768729
 134    -0.00065347077949153
 135     0.069726518266259
 136     0.094294750124344
 137     0.067625067207601
 138    -0.040380801413582
 139    -0.095587223715829
 140     0.022752179082255
 141      0.02420423614179
 142     0.067708934317226
 143    -0.029240956441063
 144     0.002171201275736
 145    0.0023044625214357
 146    -0.00038874134564429
 147    0.0020875268802352
 148    0.00051444148191785
 149    -0.035121952229313
 150    -0.012561260431468
 151    0.0016248738770445
 152    -0.00095827842852919
 153    -0.00071885003857164
 154    -0.00050965130975343
 155    -0.012734177339419
 156    0.0016144565945761
 157    0.0022148365442618
 158    -0.00072084737348914
 159     0.058411991272127
 160    0.0044882872399319
 161    -0.0041743317275776
 162    0.0014303660340871
 163    -0.0057165630517967
 164     0.049286707120173
 165      0.15103662751921
 166     0.061094641920785
 167     0.031143744960355
 168    -0.036938177639568
 169    -0.054437634856369
 170    -0.0060809251882401
 171      0.02655591986755
 172     0.031706449963659
 173    -0.0022275804538618
 174    -0.00034699505249577
 175    -0.0024838890677723
 176    0.00059686482274392
 177    -0.0012544483595229
 178     0.069154135045367
 179    0.0041841122205804
 180    0.0032741761313974
 181    0.0081300328067206
 182    -0.0049028567541645
 183    -0.0063645556834266
 184    -0.010055393780905
 185    -0.001819835567263
 186    0.0012574487157563
 187    0.0026783731910602
 188     0.082552784575921
 189    0.0032798692025093
 190    0.0057121353574547
 191    -0.0083031395664808
 192    0.0030141836748146
 193     0.051145013084607
 194      0.12304212748903
 195      0.04897123724722
 196    0.00074187312851071
 197     0.024610813054855
 198    -0.0038224503897068
 199    -0.0033543544956347
 200    -0.0025612459413736
 201    0.0062473276307668
 202    -0.00021022565134356
 203    0.00016355471466113
 204    0.00042403272499937
 205    -0.00016813209281587
 206    -0.00013861743662146
 207     0.028956323659498
 208    -0.0019366930270573
 209    -0.0019111735682449
 210    -0.0033066534049462
 211    0.0040948768572218
 212     0.053585154310927
 213     0.001373921811307
 214    0.0055399523458528
 215    0.0052332344577678
 216    0.0022743027443502
 217     0.047760556780497
 218    0.0010075356525045
 219     -0.00611373731758
 220    0.0018614475294752
 221    -0.0038502789354504
 222    0.0069601805912957
 223     0.054734010220666
 224     0.059937107104528
 225    -0.065691881864833
 226    -0.090343785928132
 227    -0.071321033673441
 228     0.060773423625022
 229     0.055003846241491
 230      0.04792120866022
 231    -7.6529658527073e-05
 232    -0.0017379602722561
 233    0.00027745625049868
 234    0.0026271494695805
 235    -0.0003639987607462
 236    -0.056556386462878
 237    -0.015128678440712
 238    0.0015005069261325
 239    -0.0045491041654518
 240    0.0016321976518774
 241    -0.025406799324784
 242    -0.011538155318694
 243    0.00033429547534724
 244    0.0040000564511047
 245    -0.00037664901862241
 246     0.033153011422397
 247    -0.00021364659423586
 248     0.004564439841694
 249    0.0020316565726052
 250    -0.00050782063148901
 251    -0.099336751287665
 252     -0.24139203861234
 253    -0.089700893710672
 254    0.0088891533161373
 255     -0.07379128669171
 256     0.042808361081744
 257    -0.00063956775376473
 258     0.024848567101706
 259    -0.011948279371728
 260    0.0014420864874418
 261    0.0002303602535454
 262    0.00026911721470541
 263    -0.00025367030748721
 264    0.00022416263461217
 265    -0.076787587291967
 266    -0.0022703631114629
 267    -9.7097071845976e-05
 268    0.0092489750569043
 269     0.010209730630047
 270      -0.1202863559209
 271    -0.010216814718007
 272     0.014897024082183
 273    -0.0085183339664077
 274    -0.0028086566392593
 275     -0.10491266665967
 276    -0.010097534391627
 277    -0.015022891445533
 278    -0.0060205498945368
 279    -0.00086963425681349
 280     0.039403268638483
 281     0.039792697648615
 282    -0.0093056673127568
 283    -0.0057756949885857
 284     0.011501825115666
 285     -0.10013154738293
 286      0.01221871726615
 287    -0.0083919275725734
 288     0.057321027737546
 289    0.0017141316179947
 290    0.0024518739072976
 291    0.0033789870806831
 292    0.0002981614057311
 293    -0.0020146384916534
 294     0.082890540479011
 295      0.01436297204664
 296    -0.00049385236412209
 297    -0.0051361882186519
 298    -0.0068967067931584
 299    -0.043420986320447
 300    -0.0092837166428703
 301    0.0015323642182427
 302    0.0030735267098876
 303    0.00059665928804999
 304     0.028840770255012
 305    0.0066516361706667
 306    -0.0023940197174494
 307    0.0026640939801292
 308    0.0030599474829264
 309     0.030575069877391
 310    -0.048487954126634
 311     0.042971619819613
 312    -0.077283241711295
 313     0.089617478553547
 314     -0.18013788465053
 315     0.042421185195775
 316    -0.068619881909473
 317      0.11821659034665
 318    -0.0013735771268614
 319    -0.0049316749796873
 320    -0.0015735928388345
 321    0.00021023901034881
 322    7.9934354776558e-05
 323    -0.058991354543727
 324    -0.011896722041687
 325    0.00077890329089792
 326    0.0066480675907487
 327    0.0072309730188727
 328     -0.14278459018328
 329    -0.031002486887837
 330     -0.01070055806637
 331    -0.0064816351392597
 332    -0.0085222235488937
 333    -0.013036230074436
 334    -0.0064076111126741
 335    0.0063208391414723
 336    -0.0023965643260707
 337    0.0037966734452566
 338      0.05086726118907
 339      0.15345039557265
 340     0.058963347385383
 341    -0.063072054114058
 342    -0.010091039984555
 343     0.017183924725222
 344     0.043535906709493
 345    -0.0075383668342237
 346    -0.015133602635111
 347    -0.00069869270684571
 348    0.00048789499715473
 349    0.0017596401164709
 350    -0.0013336147387161
 351    0.0019679544090353
 352     0.084135122405658
 353    0.0080698692975122
 354    -0.0053401148961147
 355    -0.0086306928124635
 356    -0.0036396462878237
 357     0.014681836910612
 358    -0.0057363262613402
 359    0.0028846853212477
 360    0.0021153068494279
 361    -0.0031336400285459
 362     0.020402972252384
 363    -0.0061395327078329
 364    0.0052979287574662
 365    -0.0012255877762905
 366    0.0016195873143999
 Sym= A
 Ene=              32
 Spin= Alpha
 Occup=    1.00000
   1    0.00071425901241597
   2    -0.0062547049802004
   3    0.0005289339983021
   4     0.026636034206972
   5    -0.006864704251856
   6    -0.012335269316083
   7    0.0012261523427551
   8    -0.020511155588967
   9     0.040680859005367
  10    0.0049897339109265
  11     0.072822441489516
  12    -0.043699679477554
  13    -0.022081425234707
  14    -0.036121702992104
  15    0.0020803877143504
  16    -0.001035626974546
  17    0.0065975790961056
  18    -0.007589028980983
  19    -0.00051695515034603
  20    0.0010592541371522
  21    -0.00010722810149321
  22    0.0030871483698145
  23    -0.0026503734723181
  24    -0.00023631872141427
  25    0.0029684832387345
  26     0.002068575908754
  27    0.0018103758823254
  28    -0.0015284616411924
  29    -0.0011682782475187
  30    -0.0027605168572753
  31    -0.0044787015724008
  32    0.00060316369777265
  33    -0.0024817045269496
  34     0.012202186457338
  35    -0.026718274679523
  36    0.0039646853167197
  37    -0.0030935508956964
  38    -0.038880722627946
  39    -0.035330732630493
  40     0.017197594995921
  41      0.13017281843709
  42      0.10420246784076
  43    -0.051420921937236
  44    -0.039364510606204
  45    -0.020593812520434
  46    -0.002054757766154
  47    -0.00090607256190661
  48    -0.0042231605089476
  49    0.0063066071234436
  50    -0.0016257907083444
  51    -0.00012918040701738
  52    -0.0011976212578787
  53    -0.0014013932391488
  54    0.0025745113682042
  55    -0.00082703623792716
  56    0.0028917522758421
  57    0.0013476389969668
  58    2.2293770148648e-05
  59    -0.0027774504093476
  60    -0.0007083399247632
  61    -0.0021244147411078
  62    -0.0039417932601024
  63    -0.0051498764868605
  64    -0.025085317944416
  65    -0.022967893264946
  66     0.017846522544451
  67     0.015809533548408
  68     0.011234757643492
  69     0.032973800650553
  70     0.024346392668575
  71     0.019125329914501
  72    0.0001745861173407
  73    0.00022936637239829
  74    -0.0002739542556321
  75    0.00030671696738155
  76    0.00048416127769032
  77    -0.028260020647747
  78    -0.050255012300719
  79     -0.10212714125374
  80     -0.19735328318858
  81    -0.022766010821214
  82    -0.056525020268945
  83      0.14579100134396
  84     0.030805372221049
  85     0.047752368942969
  86     0.001389437808907
  87    -0.00057138415315065
  88    6.6351390549118e-05
  89    0.0021072284447685
  90    -0.0012909811168513
  91     0.072530405285857
  92     0.021388715978264
  93    -0.0026834833109352
  94    0.0030800583465517
  95    0.0069101644299774
  96     0.056177527713349
  97     0.018365784061837
  98    0.0041710325528178
  99    0.0024667025548308
 100    -0.0057208865724019
 101    -0.0014971630910946
 102      0.01248537045791
 103    0.0058832869101651
 104    -0.0005092410523622
 105    0.0014617548985714
 106    -0.0053524559525095
 107    0.0015176375960146
 108      0.02013174629408
 109    -0.019025424656474
 110     0.033505323603997
 111    -0.050017776861069
 112     0.014858578007819
 113    -0.023923657045746
 114     0.037367325154062
 115    -0.0010656050242906
 116    -0.00093368195448969
 117    -0.00074523210701196
 118    -6.5991799450702e-05
 119    0.0017455624266019
 120    -0.026340492472195
 121    -0.0070752445910203
 122    -0.0021490156129601
 123    0.00082411578305301
 124    0.0014958976929726
 125    -0.025079361313166
 126    -0.0062588312836829
 127    -9.2850140468605e-05
 128    -0.0026446870785857
 129    -0.0011579837157257
 130    -0.00086727431251293
 131    -0.0011872929128116
 132    0.0013229255803806
 133    -2.0180032022471e-05
 134    0.00073667830060559
 135     0.010622694653941
 136    -0.0037723882866336
 137    -0.015933201671651
 138     0.012690103118058
 139     0.011592230864365
 140    -0.028508971390767
 141    -0.0030513508267056
 142    -0.0087113515104836
 143     0.023391476397954
 144    0.00098104003681206
 145    0.00054528783015082
 146    5.8670265968309e-05
 147    0.00084321006911442
 148    -0.0002807955950715
 149    8.8484226214171e-05
 150    0.00024534987915796
 151    -0.00069193878128592
 152    0.00028501820154865
 153    0.00044231063872164
 154     0.016993644044808
 155    0.0058732060059962
 156    0.0017553848537768
 157    -0.00051927889345855
 158    -0.00086511596320097
 159    0.0068433717736906
 160    0.0032666253934426
 161    -0.0010424644994447
 162    -0.0008228580794502
 163    0.00097904621359698
 164     0.032479898554474
 165     0.080726941884396
 166      0.11369976497377
 167     -0.16018835480047
 168     -0.12259428930813
 169    -0.094538748929424
 170      0.13338524092162
 171     0.080294699460462
 172     0.065751867522855
 173    -0.0028092959464042
 174    2.4913655617593e-05
 175    -0.0022467511140387
 176    0.0012869178959587
 177    -0.0019906430229214
 178    -0.038553807032871
 179    -0.014566314913546
 180    0.0018144728792581
 181    0.00044831891258254
 182    0.0064356929308312
 183    -0.085487796934109
 184    -0.025856272335583
 185    0.0040174107903649
 186    -0.001525064721319
 187    -0.0071520939893635
 188     0.017486751363231
 189    -0.010740696873348
 190    0.0049742677467364
 191    0.0028523250316455
 192    0.0030587415173048
 193    -0.060038817192662
 194     -0.13095745460874
 195    -0.014902133044973
 196     0.025920780556695
 197    -0.095112656737605
 198    -0.098297280381773
 199    -0.011177120802984
 200      0.05648491844765
 201      0.05967551042156
 202    -0.00067268520944787
 203    0.00047783351333027
 204    -0.0013338013631937
 205    0.0013841987954649
 206    -0.0028049080087387
 207    -0.090225599368934
 208    -0.012076301119668
 209    0.0046223038833121
 210    0.0076992301167656
 211    -0.0092913958467757
 212     -0.10617661486839
 213    -0.016650155496275
 214    -0.010695589460646
 215    -0.0086876648144554
 216    -0.00086322313691315
 217    -0.047295716042541
 218    -0.0024397481208002
 219    0.0061810015901698
 220    -0.001226239693089
 221    0.0076349090050019
 222     0.028837315687687
 223     0.017778175740459
 224     0.078656243062991
 225     -0.21181143240166
 226    -0.0078790552968495
 227    -0.022115754358262
 228       0.1481397723988
 229     0.021169478308519
 230     0.026437097066899
 231    -0.00067584431144322
 232    0.0022742736812952
 233    -0.00020382220526397
 234     -0.00340374974129
 235    0.0013536369999056
 236    0.0059878790554967
 237    -0.0086202690644725
 238    0.0067944394835142
 239    -0.00082029711700583
 240    0.00042502307019187
 241    -0.048796447696677
 242    -0.011994878007031
 243    0.0048873215050283
 244    0.0023273233961547
 245    -0.0065275143695244
 246      -0.1099034747701
 247    -0.025774150400442
 248    -0.0056294297179439
 249    0.0033709275945736
 250    0.0093332427254531
 251     -0.01180800853603
 252    0.0014827390300906
 253     0.010019142786543
 254     0.064968846072079
 255      0.00161370795082
 256     0.025059830982326
 257    -0.030704736856261
 258    0.0053921931452201
 259    -0.015356403694584
 260    -7.9360927077039e-05
 261    -3.1052842830729e-06
 262    -0.00020795751758086
 263    0.00045246665100918
 264    0.0021147685579933
 265     -0.01958113416191
 266    -0.003868734636916
 267    -0.002414114228213
 268    0.00095320040699588
 269     0.002217203611649
 270    -0.039056315948244
 271    -0.0084531170441201
 272     0.001543211811416
 273    -0.0039465600130197
 274    -0.0008564198899999
 275     0.044017506549649
 276    0.0083866143152941
 277     0.002530118948596
 278    0.0035111823024556
 279    -0.002090546649738
 280    -0.025445992617926
 281    -0.068153291446739
 282    -0.099092986329753
 283      -0.1699112934268
 284      -0.1006342682435
 285    -0.070959624235152
 286      0.13309393538564
 287     0.068996291134525
 288     0.049132135416875
 289    0.0015482560024447
 290    -0.0005231316364447
 291    0.00084582990879486
 292    -0.00093772109853223
 293     0.001658568321505
 294     0.062286257858015
 295      0.02024302418298
 296    0.0044452504794677
 297    -0.00070260858386039
 298    -0.0057245175435935
 299     0.048656649236821
 300     0.015410267877999
 301    0.0023639025824439
 302    -0.0014469598925608
 303    0.0066534969552528
 304    0.0034010528378438
 305     0.014932022263762
 306    0.0037826985377399
 307     0.004253786461599
 308     0.001899218456916
 309    -0.010634935109954
 310    -0.018892934864876
 311    -0.019685038527086
 312     0.092037851742329
 313     -0.03234719652503
 314     0.035777071179149
 315    -0.044633381138942
 316     0.025310874874378
 317    -0.023137224850905
 318    -9.6597928215631e-06
 319    0.0031351155825292
 320    0.00063474913817903
 321    -0.002231631039946
 322    3.975656317355e-05
 323     0.025702059600968
 324    0.0070965732327114
 325    -0.0027474178997316
 326    -0.0021078340370615
 327    -0.0019927143637649
 328     0.056503945651391
 329     0.013360916654979
 330    0.0016600550206163
 331    0.0021119098453503
 332    0.0050805387773041
 333    -0.064041832065695
 334    -0.010667989395795
 335     0.003996293327047
 336     0.000997029139008
 337    -0.0050528770584869
 338     0.047601718596694
 339      0.11706689150409
 340     0.024827872302406
 341     0.016364132708649
 342    -0.064024061306103
 343    -0.076683558117934
 344    -0.0013009734334148
 345     0.037773902622912
 346     0.042590332672304
 347     0.000417424391066
 348    -0.00039820630807415
 349    0.0011964216291726
 350    -0.0015132542781999
 351    0.0022239683733351
 352     0.082395138129925
 353     0.012271214739544
 354    -0.0084289113505147
 355    -0.0068859009783685
 356    -0.00023660521831359
 357     0.077418963308491
 358     0.010821249482668
 359    0.0040267751717421
 360    0.0057117121850965
 361    -0.008496911412137
 362     0.035945329625959
 363    0.0012723116361877
 364    0.0048060245309849
 365    -0.0012544594267645
 366    0.0061093722096672
 Sym= A
 Ene=              33
 Spin= Alpha
 Occup=    1.00000
   1    -0.0066417739640182
   2     0.023756362372401
   3    -0.056735111489766
   4    -0.0035826204076248
   5    0.00031645075059484
   6     0.055896371488419
   7    -0.046926660055991
   8    -0.031452947814302
   9     -0.16831965833902
  10      0.14645819263514
  11      0.10325863026204
  12     0.038217048579912
  13    0.00046539445098914
  14    -0.0089483552513138
  15    -0.0039654239022889
  16    -0.002086046097364
  17    0.0053329400170654
  18    0.0026975712709791
  19    -0.0042581387724332
  20    -0.0009872442666842
  21    -0.0031472437801295
  22    0.0031339319827722
  23    -0.0012758273940297
  24    -0.0040920077155826
  25    -0.00055913680544796
  26    -0.00088545996854583
  27    -0.00074286543865295
  28    0.0019502513067904
  29    0.0023343550261674
  30    -9.7629043526541e-05
  31    0.0023482975129614
  32    -0.0023082770839729
  33    0.0038192552627979
  34    -0.019475731898436
  35     0.047207963628456
  36    -0.0076722858750239
  37     0.062711059738229
  38    -0.053522885502971
  39    -0.048102696705075
  40      -0.2086873933314
  41      0.14787625978015
  42       0.1464854365077
  43     0.033367019649803
  44    0.0020359786541006
  45     0.015011144562281
  46    0.0048486040241904
  47    0.0033162151400988
  48    -0.0083986307299632
  49    -0.0018288977979004
  50    0.0065839904486859
  51    0.0021495302634585
  52    0.0030427936654592
  53    -0.0026675882446089
  54    0.0011791840271895
  55    0.0045041646151722
  56    -0.001234569523612
  57    -0.0018352447017688
  58    -0.0020465244964012
  59    0.0014851218673053
  60    0.0027404117918851
  61    0.0012563065165593
  62    0.0032849034346731
  63    -0.041741851914439
  64    -0.011649374230284
  65    -0.013668648293832
  66    -0.014644628244143
  67    0.0079826783306002
  68    0.0018232879343032
  69    -0.025672650802427
  70    0.0078937709288125
  71    0.0018339537748234
  72    0.00019924069450748
  73    9.2868616631258e-05
  74    -7.2808783352539e-05
  75    0.00033243613523753
  76    0.00037925156323686
  77    -0.023952047128339
  78    -0.022938099985658
  79     0.034609909512136
  80      0.11041229084334
  81    -0.0017249621839233
  82     0.067044647437607
  83    -0.078436775564797
  84    -0.0056104148243553
  85    -0.042091385837048
  86    -0.0019517614060977
  87    -0.000570128912221
  88    0.00050988136505051
  89    -0.001742374934876
  90    0.00076976507198251
  91    -0.043992064379211
  92    -0.011057238872584
  93    0.0019804109209743
  94    -0.0018746444920497
  95    -0.0057883379902511
  96    -0.078602749362728
  97    -0.016612367540912
  98    -0.00026549348093139
  99    -0.0029366452879354
 100     0.008066750718795
 101    -0.0035227533212335
 102    -0.0031148334756553
 103    -0.0035308706205377
 104    0.0020947160454537
 105    -0.0023618749172402
 106    0.0096575197413597
 107     0.026314188664426
 108    0.0029759759401564
 109    -0.020116145638851
 110     0.022528524814175
 111     0.036834021606519
 112    0.0063871415602594
 113    -0.011757293835198
 114    -0.020512377620707
 115    0.0018376330201861
 116    0.00050104402686847
 117    0.00093881638905407
 118    8.4888146311026e-05
 119    0.00075147167253593
 120     -0.01916855225539
 121    -0.0047098542242822
 122    -0.00089999431301933
 123    0.00045933849537415
 124    -0.0014742446964858
 125     0.041322421718134
 126    0.0072533129544021
 127    0.0015094369462686
 128    0.0017858953283973
 129    0.0037364594846147
 130     0.014890755376602
 131    0.0019447123371356
 132    -0.0012359158977491
 133    -0.0025136827088511
 134    -0.00064072815936917
 135     0.057986651599771
 136     0.057332290777548
 137     0.013037899348171
 138    0.0033320914571026
 139     0.051065110884263
 140    -0.025081239421182
 141    -0.0052554906352879
 142    -0.027065656312271
 143     0.015809080882664
 144    -0.00084444459691765
 145    -0.00095975956362928
 146    4.779529813598e-05
 147     -0.00092784128506
 148    -1.338363649826e-05
 149     0.053289329259364
 150     0.006957432644581
 151    -0.00085508147571829
 152    0.0061414032114926
 153    0.0025237067491617
 154     0.026635403260139
 155    0.0022824593372944
 156    0.0037625786196278
 157    -0.002405863930102
 158    -0.00072489436937178
 159     0.019684529244871
 160    0.00072644739932336
 161    -0.002819040687412
 162    -0.0028511602657562
 163    -0.0021627520086448
 164    -0.013965228108133
 165    -0.018862045527469
 166    -0.057199304066316
 167      0.10470711379321
 168    0.0085451243029657
 169     0.088901086289198
 170    -0.080730135704468
 171    -0.010893336701388
 172    -0.053374028044307
 173    0.00032087947513745
 174    0.0012202453288776
 175    0.0018725782171775
 176    -0.00015821109448693
 177     -0.00189943081394
 178    -0.015301016869572
 179    0.0014116760874131
 180    -0.0037523342499559
 181    -0.0011493129076645
 182    -0.0025654552530219
 183      0.05773270798586
 184     0.015549691412464
 185    -0.0026667408428194
 186    0.0037634777055735
 187    0.0044904001511067
 188     0.048931910917934
 189     0.018674856850952
 190    0.0012200492095211
 191    -0.0053517927819691
 192    -0.0020625900964781
 193    -0.080371489764905
 194     -0.15744860008615
 195    -0.051355895458846
 196     0.078790375659718
 197    -0.038784413859894
 198    -0.040145539699113
 199    -0.042352943469164
 200     0.012094025095046
 201     0.017214748113338
 202    -0.0007296654200507
 203    0.00095174588743716
 204    0.0011330475523781
 205    -0.0012458618262949
 206    0.0021295498652826
 207    -0.091452952243008
 208    -0.009324045557533
 209     0.002968116692015
 210    0.0064781508155596
 211     -0.01065425603765
 212    -0.041267445006582
 213    -0.00058910226196312
 214    -0.0078805548194143
 215    -0.0048382560428355
 216    -0.00070486002422847
 217    -0.094545723123772
 218    -0.011179373640276
 219    0.0084507784244842
 220    -0.0045452578389739
 221    0.0088825088315004
 222    -0.0056883292452477
 223    -0.069281565432119
 224    -0.076055943613931
 225     0.066653160356949
 226     0.027894473345213
 227     0.053890557105648
 228    -0.061655537765788
 229    -0.026845879463184
 230    -0.038423259720423
 231    0.0010242513116912
 232    0.0012912256414549
 233    -0.00047076397701465
 234    -0.00027556915097514
 235    -0.00011032668992235
 236    0.00012244838428306
 237    0.0080174697365031
 238    -0.0013608490816235
 239    -0.00086922611302799
 240    -0.001550900843468
 241     0.025982729485203
 242     0.013823809129644
 243    -0.00047237295842078
 244    -0.0014288133489795
 245    0.00082704556996747
 246    -0.014119390533507
 247    0.0054278549085714
 248    -0.0028313252463138
 249    -1.9996060616154e-05
 250    -0.0002032488095782
 251    -0.035713452253757
 252    -0.064188791861188
 253     0.023337060839946
 254     0.050339328397261
 255    -0.070255974239993
 256      0.12435913923378
 257    -0.031271687579042
 258     0.050022033643123
 259    -0.082878209553644
 260    -0.0012601966774811
 261    -0.00091071876189378
 262    -0.0012967397441389
 263    -3.3683286656073e-05
 264    0.0029947327301105
 265    -0.082931850867513
 266     -0.01491705923517
 267    -0.00087822722158481
 268    0.0078470347633323
 269    0.0071639076943066
 270    -0.083991973810677
 271    -0.019121688555596
 272    0.0079306782705726
 273    -0.0051817489480095
 274    -0.0042349312427765
 275    -0.019124021917554
 276    -0.0021871219398248
 277    -0.0054080993980093
 278    -0.00083621530815319
 279    -0.0036061791997549
 280     0.041531519022139
 281     0.067777940096133
 282      0.09782716414331
 283      0.13695102280462
 284     0.040952587931723
 285      0.11715499737788
 286     -0.11047354314608
 287    -0.034150307028891
 288    -0.074955753919315
 289    -0.0019362332580207
 290    -0.0014569809903525
 291    -0.002766886190683
 292    0.00051207051651606
 293    0.0015111273801361
 294    -0.075661002693077
 295    -0.022634957905096
 296    -0.0033208576737499
 297    0.0033306991405201
 298    0.0053822834005804
 299      0.01787481175492
 300    -0.0044978225980579
 301    -0.0041663993890551
 302    -0.0023542148537566
 303    -0.0026545328530905
 304    -0.028190744508251
 305     -0.02154984520242
 306    -0.0010230881778985
 307    -0.0040980655100061
 308    -0.0034370835112359
 309     -0.02613765137954
 310    -0.063746223031542
 311     -0.03361727365289
 312      0.10924943155334
 313    0.0064372090225714
 314    0.0019149698109746
 315    -0.061268164493881
 316    0.0025553135337439
 317    -0.0079926669165275
 318    0.0017454861808236
 319     0.005640919746733
 320    0.00070344440116122
 321    -0.001858445328739
 322    -0.00041017104286133
 323    -0.010344315481726
 324    0.0021208055565524
 325    -0.0038167108943343
 326    0.0017050425718756
 327    0.00062011258211841
 328     0.043080730240446
 329     0.013612659127685
 330    -0.00090265093912488
 331    0.00040801490732975
 332     0.002881329650066
 333     -0.10249332481595
 334    -0.017949871857447
 335    0.0085004557800794
 336    -0.0003503641161507
 337    -0.0050531385902201
 338     0.093356231984361
 339      0.23144487765814
 340     0.091664402168243
 341     0.079738379059623
 342    -0.00055458707137194
 343    -0.013525443216931
 344    -0.036838622290682
 345    -0.017133582208074
 346    -0.0061450010833911
 347    0.00060170019138724
 348    -0.00090936514065395
 349    -0.0015508566075411
 350    0.0014010809256108
 351    -0.0033843008816678
 352     0.035693050977053
 353    -0.005724838490975
 354    -0.0081158625903077
 355    -0.005566394482113
 356    -0.0010754548721014
 357      0.10713730125266
 358    0.0087425330932366
 359    0.0038915650593958
 360    0.0058726751399835
 361    -0.013833027500112
 362      0.11774300670813
 363     0.011417030169381
 364      0.01092205385921
 365    -0.0066042352540933
 366    0.0098111717052037
 Sym= A
 Ene=              34
 Spin= Alpha
 Occup=    1.00000
   1    0.0020601493674146
   2     0.070814060866392
   3     -0.11350449148063
   4    -0.0078983369181057
   5    0.0030944493514434
   6    -0.078924932738057
   7     0.012978282784175
   8    0.0059477259457199
   9      0.11797147713177
  10    -0.058136074585865
  11    -0.013228783038373
  12    -0.032547642747599
  13     0.019434142414109
  14    -0.010909840764086
  15    3.9014137131053e-05
  16    -0.0036206227369891
  17      0.00395227442194
  18    -0.0018934364640537
  19    -0.0043338057122459
  20    0.0022948734975381
  21    0.00060380825997127
  22    -0.002895270960655
  23    0.0016415400713183
  24    0.0031371891118462
  25    -0.00026462660362882
  26    0.00033257754618474
  27    0.0017704481928792
  28    0.00040816747157974
  29    -0.0013742077418369
  30    0.00095844595940145
  31    -0.001147404689637
  32      0.02901115159084
  33    -0.055991702361378
  34      0.10262345978667
  35    -0.0065390963759488
  36    0.0055189262356305
  37      0.03725497918411
  38     0.033206154329144
  39     0.054571085206087
  40    -0.035486875060146
  41    -0.080763052345263
  42     -0.18424680328335
  43     0.021180023759847
  44     0.007911598141263
  45     0.042801980277557
  46    -0.00029357861964948
  47    0.0034469797153043
  48    -0.0042798650285492
  49      0.00154359517554
  50    0.0041009322491793
  51    0.00066104314470481
  52    -0.00040116092826174
  53    0.0018133684692088
  54    -0.00058466623688463
  55    0.00053230879146372
  56    -0.0013457653658171
  57    -0.0011010227929858
  58    -0.00055948316977645
  59    0.00045289211701179
  60    0.00068091594035173
  61    0.0011461783701843
  62    0.0016692384202971
  63     -0.10579187522708
  64      0.01986502589054
  65      0.01627234367359
  66    0.0036766401679165
  67    -0.012902271223101
  68    -0.004146265521629
  69    0.0016690580830828
  70    -0.012918076089028
  71    -0.0052052263680163
  72    0.00031137830939567
  73    -0.00026776047367647
  74    0.00039009631208532
  75    -0.00019452545194939
  76    -0.00021479484582876
  77     -0.13206696141609
  78      0.02304824164406
  79    -0.0033428267147762
  80    -0.068108081509247
  81      0.10168080449289
  82     -0.11636410339639
  83     0.043504273197744
  84    -0.053056459477724
  85     0.066952717189901
  86    0.0061539465252034
  87    0.0027271433141359
  88    -0.0015662370848551
  89    0.0040621868302158
  90    -0.0022827482718558
  91     0.017722449166921
  92    0.0033833509022845
  93    -2.4479721980047e-05
  94    -0.0025792629242626
  95    0.0052400886335068
  96      0.12904475553789
  97     0.022624656044588
  98    -0.0018883014111535
  99    0.0014176588769319
 100    -0.011361754708397
 101    -0.083692805098071
 102    -0.020166011304763
 103    0.0022224822101245
 104    0.0063220143206818
 105    0.0035668444046952
 106       0.1353285802306
 107      0.16037937363671
 108     0.065189545137854
 109     0.020871508500912
 110     -0.11900419882039
 111    -0.073161141899428
 112    -0.0053783587650473
 113     0.056706228855577
 114     0.048774029316316
 115    -0.0060193014299864
 116    -0.0011611345920562
 117    -0.0028599475375678
 118    0.00042176384662626
 119    -0.0018713321046318
 120      0.13574561017169
 121     0.014006692059628
 122     0.013670603585283
 123    -0.0084736379191336
 124    0.00057255933118868
 125    -0.045208924368842
 126    -0.015621611757882
 127    -0.0012940189853989
 128    0.0030460262918298
 129    -0.00084181300057389
 130     0.083281471249249
 131    0.0048440161267823
 132    -0.011941326812522
 133    -0.001604788954622
 134    0.0031556756423326
 135    -0.025294432250124
 136    -0.090390811493304
 137    -0.057148098977817
 138      0.14515030915407
 139     0.087863898275303
 140     0.027523979467175
 141    -0.076222977961099
 142    -0.062233442240447
 143    0.0010641271689533
 144    -0.0039482797875158
 145    -0.0070679808037586
 146    -3.7484829782911e-05
 147    -0.0015664258141499
 148    -0.00067922356304948
 149     0.030758505058469
 150    0.0086898253367537
 151    -0.0056960124376786
 152    0.00015701852433385
 153    -0.00099400287363883
 154     0.062473478378981
 155      0.01820373237111
 156    0.00098053163635693
 157    -0.002790375301964
 158    -0.0049844440130259
 159     -0.14405923782594
 160     -0.02065588922995
 161    0.0085013833298687
 162    0.00098044947962403
 163      0.01153671268199
 164    -0.029607994604825
 165     0.083276351633394
 166     0.019898498705945
 167     0.011871725689681
 168    -0.042061960037904
 169      0.05007188724423
 170    -0.0034009046067088
 171     0.019814437251876
 172    -0.028276926494442
 173    6.608984811389e-05
 174     0.001410458878936
 175    0.0015029816157007
 176    -7.3924704637774e-05
 177    -0.0023595826040825
 178    -0.018941666987491
 179    -0.0051092443372673
 180    -0.0010616460960481
 181    0.00072778179438259
 182    -0.00057266557420577
 183     0.043966598953109
 184    0.0036213976272594
 185    -0.00041832287960927
 186    0.0047448090878464
 187    0.0037198493053527
 188     0.063810100879383
 189    0.0044732636471332
 190    0.0053059457978261
 191    -0.0055373262622996
 192    -0.0010480498028947
 193    -0.044717853231791
 194    -0.043392030956114
 195    -0.025537217095165
 196      0.03354083633199
 197    -0.021130034235701
 198      0.12766304240845
 199    -0.011432893732981
 200    0.0047421411816728
 201    -0.072723608634977
 202    0.0027140253028998
 203    -0.0036638222834489
 204    0.00062723605036018
 205    -0.00081242630162817
 206     0.003509501601311
 207     0.069006719066291
 208     0.013500554020113
 209    -0.0050116817773286
 210    -0.0016966639087456
 211    0.0031316443831704
 212     0.015667829299831
 213    0.0063875396081134
 214    -0.00045916383108051
 215    0.0026550776023053
 216    -0.0039951948126087
 217    -0.095934545320806
 218    -0.015526133714257
 219    0.0086750429828585
 220    -0.0049764862910392
 221     0.001368525980792
 222    -0.065799011201506
 223     -0.13296736492376
 224    -0.056401563977399
 225     0.061365098049577
 226    -0.032826061052478
 227    -0.075852716022437
 228    -0.045863419372271
 229    0.0099173802941062
 230     0.032812874000947
 231    -0.00077449197099871
 232    -0.0034955907675953
 233    0.0007622344585829
 234    0.0030921102461639
 235    -0.00099397367505784
 236    -0.074228898653746
 237    -0.0071940012939582
 238    -0.0014312564509108
 239    -0.0094461692859507
 240    0.0029906524747533
 241    -0.079221660326692
 242    -0.0091022907534007
 243    -0.0055417077083458
 244    0.0053226175389616
 245    -0.0075280081568429
 246     0.040282552068346
 247     0.015064794241019
 248    0.0015030479857395
 249    0.00041846299438882
 250    0.0007750987873821
 251     0.072926552916157
 252    -0.0071214819232266
 253    0.0024083361886737
 254    -0.00093679385903257
 255    -0.0057597956537097
 256     0.033950910659452
 257    -0.0020126112889697
 258    -0.00022177268962861
 259    -0.022691337941965
 260    -0.0011250476510309
 261    -0.00018589494852437
 262    -0.00067408382075869
 263    6.2003700268142e-05
 264    0.00014388271112307
 265    -0.021973292215498
 266    -0.0026524445988323
 267    0.00031222429683591
 268    0.0018070534035279
 269     0.001175884138599
 270    -0.0017375036795087
 271    -0.0053288927316358
 272    0.00063723058239218
 273    0.00014569004108316
 274    -0.00088589046973866
 275    -0.0051099700862626
 276    -0.00020393476517922
 277    -0.00088908200492339
 278    -0.00032051076599061
 279    -0.00084049062015238
 280      0.06981797453862
 281      0.10324905628618
 282     0.055492912306593
 283     0.035975904590444
 284     0.059511174551374
 285    -0.035434646987813
 286    -0.037066438464361
 287    -0.034819931226047
 288     0.011147831116948
 289    -0.00032227996350984
 290    0.0014870849985343
 291    0.0014556042594798
 292    0.00059761825956037
 293    -0.0020392068234997
 294     0.038744181048607
 295    0.00057032335618217
 296    -0.00069987320483721
 297    -0.0046847707807075
 298    -0.0040684467462795
 299     -0.02868785657515
 300    -0.015139090484167
 301    0.00088147873929435
 302    0.00021235834956551
 303    8.7029557457756e-05
 304     0.055848337752161
 305    0.0070407912029895
 306    -0.0058770234932936
 307    0.0045174825990143
 308    0.0012911210303909
 309      0.10459001965608
 310    -0.0050165573435977
 311     0.010457368536041
 312     0.035064201667638
 313    -0.087395100978049
 314    -0.039689230937546
 315    -0.022126092381962
 316     0.041586135803835
 317     0.021843908314581
 318    -0.0016874305080563
 319    0.00089205791463359
 320      4.6149523361e-05
 321    -0.0043311278946065
 322    -0.0012559333319513
 323     0.081246924556946
 324     0.012996872639155
 325    0.0011785997845397
 326    -0.0075035949864295
 327    -0.00094182082794381
 328    -0.024118091837785
 329    -0.0048155659308226
 330    -0.0026090871765122
 331    0.0032382853803093
 332    -0.00095210453913663
 333    -0.042783451479362
 334    -0.0064747039884093
 335    0.0030512850660591
 336    0.0030950124369135
 337    -0.00091146842920703
 338     0.018196521051486
 339     0.017549164029142
 340    0.0020003146608023
 341    -0.059745914149719
 342     0.044183510505376
 343     -0.11171240705173
 344      0.02892903810744
 345    -0.023987549407332
 346     0.057641473710063
 347    0.0028122206709778
 348    -0.0036597706331188
 349    0.00065626013335491
 350    -0.001015659524385
 351    0.0037745824145205
 352     0.031280183157458
 353    0.0051258251907555
 354    -0.00010732626506511
 355    -0.005284861821218
 356    0.0029501740295335
 357     0.078149486298951
 358     0.013783484021721
 359    0.0066763374991349
 360    0.0013629319747269
 361    -0.0049852175594447
 362    -0.092312146838945
 363    -0.018170375734223
 364    -0.0071339940982635
 365    0.0039614505531106
 366     -0.00153259050926
 Sym= A
 Ene=              35
 Spin= Alpha
 Occup=    1.00000
   1    -0.036332203060809
   2      0.04854942195701
   3     -0.20565434488594
   4     0.055314238964986
   5    -0.0089355157915788
   6    0.0028357154650177
   7      0.04754598092651
   8      0.16445203546316
   9      0.09273986175566
  10    -0.093951593548339
  11     -0.50182359741663
  12    -0.0010176220493681
  13    -0.036868730548684
  14      0.05026508424647
  15    -0.0016576912918441
  16    -0.0043251357997217
  17    0.0073654602697292
  18    -0.002284912838749
  19    -0.006781789507687
  20    -0.0011080673696895
  21    0.0022398206164729
  22    -0.0042089282328409
  23     0.001755257769369
  24    0.0024438920194081
  25    -0.0010275680258935
  26    -0.0011746056380844
  27    -0.0029009475729843
  28    -0.0029740994775358
  29    2.3688067432864e-05
  30    0.0011068743831066
  31     0.001272319272422
  32    -0.013142994899068
  33    -0.0080473526293198
  34     0.049747437198354
  35    -0.0063465037423942
  36    -0.0056383829007163
  37    -0.042938290084508
  38    0.00064967974812579
  39    -0.031268962935424
  40     0.062299644973057
  41      0.11764211782838
  42       0.1601132323965
  43    -0.0027966643582332
  44    0.0052922467087688
  45    -0.024746747339263
  46    0.00016295204593512
  47    -0.00091161426951654
  48    0.0030230110555531
  49    -0.0012470551541243
  50    -0.0011122101287482
  51    -0.0017008210592154
  52    -0.0011380298696705
  53    0.0033773880957233
  54    -0.0027652792905229
  55    -0.002906693204476
  56    -0.00027136071691639
  57    0.00021664623473035
  58    0.0029015894759764
  59    0.0015917078356629
  60    -0.00061528610954622
  61    -2.5805151579495e-05
  62    -0.00099391722198696
  63     -0.12174498806857
  64    -0.030810193575254
  65    -0.041930151785462
  66    0.0040940286238118
  67    -0.011380360219968
  68    -0.0086974628213893
  69    0.0095481890358667
  70    -0.012412208486684
  71    -0.017399134592029
  72    -0.00010149299652636
  73    0.0005064098264088
  74    -0.00043259340633369
  75    -8.2707690754204e-05
  76    0.00044297109446828
  77       0.1291252063032
  78    -0.015944654402495
  79     0.010059085349489
  80     0.066688760502509
  81    7.4160446573165e-05
  82    -0.017931942686145
  83    -0.039417956504239
  84    0.0010132854689612
  85     0.002998808552459
  86    5.7388321295317e-05
  87    0.0011355970745963
  88    0.00014475058415718
  89    -0.0019240059921209
  90    0.00087925912007718
  91    -0.052638537780175
  92    -0.010767675469723
  93    0.0033121011961672
  94    -0.0028427889722506
  95    -0.0032069229181634
  96    -0.0015674198471073
  97    -0.0021127244869076
  98    -0.0023294714058407
  99    0.00044799469270443
 100    0.00091376762624416
 101    -0.0020193633882472
 102    -0.0032712917475447
 103    -0.0022496155705722
 104    0.0012775047795269
 105    0.0019665656816396
 106     0.014960437886363
 107     0.019899966273174
 108    -0.0099527415970213
 109     0.047818491652152
 110     0.037514187788499
 111      0.13299149873173
 112    -0.027635404538372
 113     -0.01518703406371
 114    -0.081882564402309
 115    0.0049224096408536
 116    0.0014471131161409
 117    0.0024827445270927
 118    -0.0011489868946628
 119    -0.0013949450133404
 120    0.0061772911491498
 121    0.0024874202648064
 122    -0.00026597230539115
 123    -0.0022316024750025
 124    -0.0044918670176072
 125      0.11761026443246
 126     0.023312531378809
 127    -2.8096827253913e-05
 128    0.0054996383028202
 129     0.010277893555016
 130    -0.037206281539071
 131    -0.0072264397821889
 132    0.0013878292306972
 133    0.00067244513508808
 134    -0.0048970173272542
 135     -0.11162346040135
 136     0.036627713000296
 137     0.031536056281989
 138     0.084179801869379
 139    -0.063537707530717
 140      0.12003726245859
 141    -0.041365025700126
 142     0.040870823878304
 143    -0.083135087720367
 144    -0.001107904719049
 145    -0.0047142262122009
 146    -3.6403432364327e-05
 147    0.00073621941588907
 148    -0.00011057084499207
 149    -0.025547327049164
 150    -0.0088393004556395
 151    -0.0022937168939876
 152    -0.0021887775498584
 153    -0.0050056901852788
 154     0.036900922920242
 155    0.0053382460558784
 156    0.00021559467777403
 157    0.0022097474482435
 158    -0.004858011670991
 159    -0.092635372264674
 160    -0.022560030128909
 161    0.0054859699000795
 162    0.0045621459121036
 163    0.0053756755094366
 164     0.094234858139478
 165     0.076369708934349
 166     0.024621751275763
 167    -0.016186015372813
 168     0.055324393164844
 169    0.0028540272587222
 170     0.014372449864863
 171    -0.024677235243667
 172    -0.0098541406888379
 173    0.0014605532331159
 174    -0.0001629820477282
 175    0.00074482243639037
 176    -3.2706474446156e-05
 177    0.0017574198868007
 178     0.049106636181059
 179    0.0070321512767178
 180    0.0040954940136726
 181    0.0033016377691085
 182    -0.0044131718648265
 183     0.047132624580093
 184    0.0044449921925364
 185    0.00033900504899823
 186    0.0012450254263029
 187    0.0062421160043908
 188    -0.017923225912081
 189    -0.0071083463008765
 190    -0.0010718212152482
 191    -0.0013061128640019
 192    0.00029524945170095
 193    -0.028334552882262
 194    -0.076629759670744
 195    0.0043319736398083
 196    -0.013738383967765
 197    -0.058896272737866
 198       -0.142097308527
 199    0.0040820805225441
 200     0.043910858844476
 201     0.077779424336615
 202    -0.0012266298428534
 203    0.0017352370026805
 204    -0.00084052065213628
 205     0.001238517033379
 206    -0.0041001997906139
 207     -0.10137966290021
 208     -0.01510220722457
 209    0.0069267290558162
 210    0.0062559804688571
 211    -0.0084474091031971
 212     -0.09468213261185
 213      -0.0141527672242
 214    -0.0073891885130712
 215    -0.0091423285583845
 216    0.0015752994185096
 217     0.024573445394578
 218    0.0075121380420408
 219    -0.0010497824737942
 220    0.0024386322532725
 221    0.0046250498750683
 222     0.077360045831678
 223     0.058090230734576
 224    0.0093975363685464
 225     0.044069817559804
 226    0.0002111842553551
 227     0.015620335122453
 228    -0.025624169347437
 229    -0.00071552379332328
 230    -0.0052868970654251
 231    0.00025467927685676
 232    -0.00029711952975526
 233    -0.00010432133753524
 234    0.00047740223745643
 235    -5.8568145234635e-06
 236     0.018935362419683
 237    0.0025101491116611
 238    -0.0022300510537241
 239    0.0034988488156922
 240    -0.00078184384685083
 241     0.040284474823459
 242     0.004818066453554
 243    0.00039810304118058
 244    -0.0022419790333104
 245    0.0052714837109982
 246     0.036850475553575
 247    0.0048617923898159
 248    0.0028719112793767
 249    -0.0016517058684035
 250    -0.0042792544097966
 251     0.036419537399028
 252    -0.0024730539336956
 253    -0.043220551831455
 254     0.043068259285236
 255      0.13554561090471
 256    -0.031186242233119
 257    -0.022773013754165
 258    -0.087112727187349
 259     0.034037557751523
 260    -0.0041962882064997
 261    -0.00075173722778023
 262    -0.0018631860984188
 263    0.0005132433437968
 264    0.0016961501466451
 265    -0.033985428040709
 266    -0.0019544594644899
 267    -0.0014491377555417
 268    -0.0025873417459871
 269    0.0034295065056714
 270     0.039978805903832
 271     0.011052038292567
 272    -0.0061723497041473
 273    -0.0011147875070256
 274    0.00072092494849213
 275     0.091353489359074
 276     0.022965725052377
 277     0.009080603517959
 278    0.0024343065086756
 279    -0.00023061594613823
 280    -0.008198275603428
 281     0.019483738772006
 282     0.012842988697816
 283    -0.017778387546061
 284      0.11159887203157
 285    -0.047948133212064
 286    0.0015253743747392
 287    -0.061481880258977
 288     0.027001014755754
 289    -0.0015715023799415
 290    0.0025592922517801
 291    0.0016703415357979
 292    0.0012500319908416
 293    -0.005713059827605
 294    0.0010051630571315
 295    0.00035947939289926
 296    0.00076974920149959
 297    -0.0037012751180283
 298    0.0013709133693761
 299      -0.0748556848571
 300    -0.013051509791671
 301    0.0044927358835529
 302     0.001991801582611
 303    -0.0037601840558292
 304     0.091284718938381
 305     0.020326663733134
 306    -0.0059527855497375
 307    0.0050514133326873
 308    0.00053615613578975
 309     -0.11896054956439
 310     0.089640863094176
 311     0.068468366269356
 312    -0.028790103428854
 313     0.024268479656185
 314    -0.068086334144778
 315     0.014645277052293
 316    -0.026390268618992
 317     0.060613791387327
 318    -0.00065060209706116
 319    -0.0017401710488719
 320    -0.00044042792880641
 321    -0.00021797821644335
 322    -0.00021545125649168
 323     0.015259159969392
 324    -0.0026640288768406
 325    0.0014323715891548
 326    -0.0025757740285527
 327    0.0010301190771351
 328    -0.022354977909599
 329    -0.0099328910988747
 330    -0.0004127451876808
 331    -0.00085396078003056
 332    -0.00025979329175875
 333     0.026512292413516
 334    -0.0043047392125387
 335     -0.00245302960434
 336    -0.00022928681786486
 337    0.0027478515372391
 338     0.029060661528235
 339       0.0369000512084
 340     0.033900849928525
 341    -0.058187638932473
 342     0.045010852851108
 343    -0.067221398633112
 344     0.040378607407747
 345    -0.034328248066052
 346     0.034117757275614
 347    0.0023198807761821
 348    -0.0031919947631144
 349    0.0010749483768666
 350    -0.00086364121723484
 351    0.0030730491970513
 352     0.025589486080268
 353    0.0029376810881915
 354    -0.00037746308680843
 355    -0.0042096591849277
 356    0.0011883035003034
 357     0.053613621444075
 358    0.0086029074986625
 359    0.0041658959500711
 360    0.0011048044135885
 361    -0.0038514360450311
 362    -0.066358189562309
 363    -0.014168390043502
 364    -0.0042895895190315
 365     0.002197356781469
 366    -0.0011034042218343
 Sym= A
 Ene=              36
 Spin= Alpha
 Occup=    1.00000
   1     -0.16205650282423
   2    -0.071394143416108
   3     0.064234111118353
   4    -0.003692399542537
   5    -0.0022417202825777
   6     -0.28302209437436
   7     0.097158423189836
   8    -0.0076528316460365
   9     0.034540609581654
  10    -0.023110062176413
  11    0.0082043035296617
  12    0.0012498231659248
  13    -0.0017478062484891
  14    -0.0018013812066405
  15    0.00019019446245464
  16    0.00021629183383952
  17    -0.00076162154692346
  18    -6.236701440566e-05
  19    0.00027323493489367
  20    -0.00046697868991409
  21    -0.00023501657294444
  22    0.00045617900589316
  23    -0.0004307331220784
  24    -0.00073379531483095
  25    0.00016014766957221
  26    3.0431236411628e-05
  27    -0.00022342835722064
  28    -0.00028453204794401
  29    -4.7232096168122e-05
  30    -0.00010400041360127
  31    -0.00011561126433103
  32    -0.064419984641515
  33     -0.15401207423203
  34     0.012023110696917
  35    -0.00068359434903136
  36    -0.000623199258358
  37     -0.22305617046983
  38      0.15399501988693
  39      0.39969450308099
  40    0.0069675154017585
  41     -0.00318075789354
  42     0.087611956493591
  43    -0.0022771961814544
  44    0.0033861031426707
  45    -0.013203633911777
  46    4.4126078694315e-05
  47    -0.0003121459769022
  48    0.00055097050012474
  49    -0.0001885597223155
  50    -0.00034393002030611
  51    0.00041385414852301
  52    0.00055462901313354
  53    -0.0011136548946586
  54    0.0003232966178591
  55    0.00083244067599797
  56    9.513001693888e-05
  57    0.00027276507796344
  58    0.00057107645259884
  59    0.00042166474919957
  60    6.4442976738451e-05
  61    -0.00029468261833834
  62    -0.00027700711204961
  63      0.17665208443758
  64    -0.0081912167971895
  65     0.004282975956839
  66    -0.0013420921765014
  67    0.0026176013445372
  68    0.00083637604261015
  69    -0.0014085278945179
  70    0.0022387645581618
  71    0.0032491082612833
  72    9.3923557085483e-05
  73    -7.930082703864e-05
  74    0.00014430037059825
  75    -8.9239792383741e-05
  76    -3.2327047250473e-05
  77     -0.11732799267181
  78    -0.0023325817631073
  79    -0.0084327251370099
  80    -0.0028058133415869
  81    -0.014466456195368
  82    0.00022972619485821
  83    0.0032118187711402
  84    0.0087688407718001
  85    0.00096832054821227
  86    -0.00034450222943415
  87    -2.3666271847196e-05
  88    1.7188461621558e-05
  89    -0.00049446268063764
  90    0.00017257029800859
  91    -0.0042178652791392
  92    0.0010267527349776
  93    0.0005631312672666
  94    0.00022029312365001
  95    -0.0004441540639355
  96    -0.0054707191841344
  97    -9.9350987866421e-05
  98    0.00029757178335704
  99    0.00022624335182879
 100    0.00083162199424325
 101    0.0095467238865656
 102    0.0033093397758447
 103    -1.6488053040523e-05
 104    -0.00045613215697605
 105    -8.5522952564653e-05
 106      0.10931637372394
 107    -0.013720476220355
 108    -0.0064289573007395
 109    -0.0056196621194322
 110    -0.012154801018084
 111    -0.0018046605279703
 112    0.0032607301288453
 113    0.0078605593052806
 114    -0.00012232917681281
 115    -0.00046406442034458
 116    -0.00017310827420817
 117    -0.00033034580146805
 118    7.0320133192514e-05
 119    0.00022435025383457
 120    0.00071808737740733
 121    0.0019697072860302
 122    0.00039810065099595
 123    0.00023922643045534
 124    0.00013075905731212
 125    -0.0091887551269024
 126    -0.00056431242719138
 127    9.9451635163779e-05
 128    2.8280124691813e-05
 129    -0.00075492197279558
 130    0.0062749029330087
 131    0.0023969292261101
 132    -0.00067558105812745
 133    -5.7306545295567e-05
 134    0.00013052593677319
 135    -0.046264133117908
 136    0.0081389679714863
 137    0.0067958714856567
 138    0.0056370532122378
 139    -0.0029941419823676
 140    0.0055212476283497
 141    -0.0027707935125727
 142    0.0041901242003072
 143    -0.0056657068577709
 144    -4.4277324303571e-05
 145    -0.00025602231066558
 146    -0.00011329105424785
 147    2.3161424945571e-05
 148    -3.9766737173179e-05
 149    0.00026451422987223
 150    2.2148645125006e-05
 151    -0.00017827405612198
 152    9.6762128301609e-05
 153    -5.517837949579e-05
 154    0.0043635633817039
 155    0.00098580402946164
 156    0.00029334566347185
 157    7.6598407177943e-05
 158    -0.00030623491133692
 159    -0.0040652607990468
 160    -0.00068047238305088
 161    7.8330710905894e-05
 162    3.4271371445463e-05
 163    0.00030261892700208
 164     0.053790393212618
 165    0.0028547660161153
 166    0.0069861891885152
 167    -0.0087931965656587
 168    -0.0097049309317452
 169     0.022557629236379
 170    0.0076992698667929
 171    0.0062820391805807
 172    -0.011319679035322
 173    0.00029319834414622
 174    0.00068809991973246
 175    0.00090247458812365
 176    2.1813820644681e-05
 177    -0.00052061540618584
 178     -0.01852607351911
 179    -0.0039351595939549
 180    -0.00077879780062463
 181    -0.0011416713535009
 182    0.00045890643137745
 183     0.014239591092116
 184    0.0025544348517354
 185    0.0001056093660445
 186     0.001307820549759
 187     0.001000535537619
 188     0.005521395140521
 189    0.00098577143079538
 190    0.0007651680041338
 191    -0.0004073439668094
 192    -0.00075854419473174
 193     -0.57798219294494
 194     0.010725652333292
 195    -0.013751471083763
 196    -0.014793629624478
 197    -0.012483583291656
 198    0.0010975469118905
 199    0.0090780072256009
 200    0.0054678725411489
 201    -0.001706549794785
 202    0.00045290512975717
 203    -0.00019395062114074
 204    -0.00074991597717079
 205    0.00050401339608082
 206    -0.0002806393312783
 207    0.0041740688296986
 208    0.0028590397799617
 209    0.0007575960244191
 210    0.00098723883391774
 211    -0.00062908829770743
 212    -0.019712647252054
 213    -0.0014435516250943
 214    -0.0020124666368443
 215    -0.0023247723454516
 216    -0.00091136637434219
 217    -0.00040756239917673
 218    0.0020995415087203
 219    0.0014812495002069
 220    4.6868235069282e-05
 221     0.000885430727809
 222     -0.17055061715657
 223     0.015797409931327
 224    -0.0012905158817459
 225    0.0054674733620224
 226    -0.0015800234482095
 227    -0.0036115561302617
 228    -0.0038827164539198
 229    7.9460364803898e-05
 230     0.004066132593416
 231    -3.6861593059399e-05
 232    -0.00031272029861923
 233    9.0590138744546e-05
 234    0.00015881604696302
 235    -0.00017534196130139
 236    0.0010165982399725
 237    -0.00028231167326572
 238    -1.2046168105584e-05
 239    -5.5235761108988e-05
 240    -6.5860115040976e-05
 241    0.0019014000451007
 242    0.00054555115582541
 243    -2.8497339195749e-05
 244    1.3284798632219e-06
 245    0.0001071401500743
 246    0.0075018638738721
 247    0.0015507334353858
 248    0.00041930976985191
 249    6.0754890436072e-05
 250    -0.00030309495222882
 251      0.21031634564537
 252    -0.013335622983823
 253    0.0037273073862869
 254    -0.0082905083348323
 255     0.011011944836121
 256    0.0048552065453532
 257    0.0048190495159799
 258    -0.0049424362110418
 259    -0.0027500402276806
 260    -0.00037913356940943
 261    7.9976202884121e-06
 262    -0.00040533355975831
 263    -8.1340202503411e-05
 264    -0.00039288417927188
 265    -0.0088559288467869
 266    -0.0014421222629602
 267    0.0003214814798248
 268    -0.00010124452795466
 269    0.00048868085953246
 270     0.010110828742715
 271    0.0023569570261806
 272    -0.0010709921917302
 273    0.00062251047213119
 274    -0.00024405511201028
 275    -0.0017183846027532
 276    0.00016064350110284
 277    0.00053841602397812
 278    -0.00035372783454983
 279    -0.00016333011222573
 280      0.20024867252828
 281    -0.020336688159237
 282    0.0025908362734066
 283     0.011166767924099
 284    -0.0050969244235199
 285    -0.0010024436883659
 286    -0.0081609851686962
 287    0.0016928828878182
 288     0.002179370325376
 289    0.00025490337395297
 290    6.660337105992e-05
 291    0.00031396505725059
 292    6.447822694548e-05
 293    0.00039327974838187
 294    -0.0010287235091651
 295    7.418677456016e-05
 296    -0.00032355536935768
 297    0.00027554706406215
 298    -7.1414442223131e-05
 299    -0.0042794755839051
 300    -0.00052534611500137
 301    -0.00013972221944116
 302    0.00029188562298846
 303    -0.00014494331831589
 304    -0.012420549635047
 305    -0.0015990289798047
 306    0.00049273258028857
 307    -0.00077314968506144
 308    -0.00010753607575709
 309    -0.020634834932925
 310     0.013881231409639
 311    0.0023350720308526
 312    -0.0051627295975376
 313     0.014940223606828
 314    0.0036585766944596
 315    0.0028222692153785
 316    -0.0075012059193214
 317    -0.00082631425147205
 318    0.00028830727418739
 319    -5.433561759809e-05
 320    4.5976549584818e-05
 321    0.0006403815961379
 322    0.00012076726923666
 323    -0.0092299413743155
 324    -0.0025525496700361
 325    -7.3606381093782e-05
 326    0.0006314813016002
 327    9.2548031162239e-05
 328     0.006980270223069
 329    0.00045929965083074
 330    0.00087268791435507
 331    -0.00039881658717469
 332    0.00044033024941158
 333    0.0098920577370725
 334    0.0014896628498192
 335    -0.0010101071119361
 336    -0.00066862622550053
 337    0.00030188905828475
 338     -0.22578069472948
 339    0.0052438278879515
 340    -0.00070983058995914
 341    0.0020496536484707
 342    0.00062061720457256
 343    0.0046417573405009
 344    -0.00028013777837806
 345    -0.0023546160627641
 346    -0.0011899889906692
 347    -6.6911366571432e-05
 348    2.5155744880424e-05
 349    -9.2522356433228e-05
 350    9.7896577545879e-05
 351    -0.00016017310036859
 352    -0.0037956636077055
 353    0.00027426996314421
 354    0.00053909892348455
 355    0.0007921601531018
 356    -0.00014310807606429
 357    -0.004611756234735
 358    -0.0003743837345679
 359    -0.00064683323755401
 360    -0.00038030033562947
 361    0.00078298677889093
 362    0.0018391384023835
 363     0.001094007267263
 364    -0.00020777325570976
 365    0.00014051488833074
 366    -0.00034707988501573
 Sym= A
 Ene=              37
 Spin= Alpha
 Occup=    1.00000
   1    -0.013805971387187
   2      0.14017429181606
   3     -0.27233356635947
   4     0.023097769626499
   5    -0.010829779585511
   6    -0.080181879763677
   7     0.017194583199491
   8    -0.034232394128898
   9       0.1510215580399
  10     -0.14435329948244
  11     0.061333814135131
  12    -0.0099330533151466
  13     0.042702776673445
  14    0.0057133316410902
  15    0.00019420907265135
  16    0.0012772691647531
  17    -0.0020259075998698
  18    0.0012439086683928
  19    0.0018020853304155
  20    8.5202263552473e-05
  21    -8.5953104621905e-06
  22    -0.0025490357686578
  23    0.00095431886200038
  24    0.00019814633706979
  25    -0.00074939380929063
  26    -0.00051369964379445
  27     0.002406258288451
  28    0.0014232575175367
  29    -0.0015822723046392
  30    0.0011917557316415
  31    -0.00022050688213536
  32     0.036486520384899
  33    -0.077277516828094
  34      0.18555622075939
  35    -0.037601194164165
  36    0.0013503195684452
  37     0.050039193442959
  38    -0.064155909997967
  39    -0.0060330534641018
  40    -0.058136812978854
  41      0.17203651817488
  42     0.033060784785784
  43    -0.010141336438189
  44    -0.024638093311472
  45    -0.010798065935709
  46    0.00020064564305232
  47    0.0014596553339588
  48    -0.0027030012076899
  49    0.0011997542259344
  50    0.0019777991038817
  51    0.00047226486626991
  52    0.0014622992486906
  53    -0.0018573929844317
  54    0.0015117975370366
  55    0.0020181787582016
  56    0.0023028386956483
  57    0.00029334030265463
  58    -0.00071215411151955
  59    -0.00059432100808507
  60    0.00064952522681308
  61    -0.0017404457082362
  62    -0.0014058014853539
  63     -0.27122145075457
  64     0.050098945497688
  65     0.015397205636515
  66     0.003878366732184
  67    -0.0064602324921371
  68    -0.002099205075625
  69    0.0012405920173364
  70    0.00079860537967401
  71     0.005760302104638
  72    -0.00014155673536597
  73    -0.0004432097819306
  74    0.00019687948768405
  75    0.00018088694179721
  76    -0.00056919136681956
  77     -0.12653854878391
  78    -0.068668894911929
  79    -0.015966368058059
  80     0.072461492234705
  81    -0.017339116979538
  82     0.048855858171493
  83    -0.039596407701958
  84    0.00033060569527931
  85    -0.028323124902399
  86    -0.0015565191452629
  87    -0.00087023774584333
  88    0.00033817891230226
  89    -0.0012546332886742
  90    0.00039824124250109
  91    -0.049388075229678
  92    -0.0058026634517717
  93    0.0038545109278456
  94    -0.001447144065744
  95    -0.0065031114689693
  96    -0.077964428172092
  97    -0.0090397474480908
  98    -0.00013692569366486
  99    -0.002240961381233
 100    0.0092754721124498
 101    -0.0053870169290301
 102     0.004136314997843
 103    -0.0029037604666862
 104    0.0027689568897494
 105    -0.0018608946967595
 106      0.05821363691835
 107     0.043457564552509
 108     0.030352910358649
 109     0.052161785090302
 110    -0.0015189661529972
 111    -0.053980551363511
 112    -0.027560797639311
 113    -0.0078566591424317
 114      0.03324830306772
 115    -0.00090881807600038
 116    0.00065595271992258
 117    -0.00019076386240271
 118    -8.6190471549845e-05
 119    -0.0028732416322471
 120     0.050954419037512
 121    0.00055441717525613
 122    0.0031314725035318
 123    -0.0040042117522139
 124    0.00077009767646066
 125    -0.020100161768267
 126    -0.0078011210949327
 127    -0.0024388379846872
 128    -0.00026163174693863
 129    -0.00089720837536542
 130    -0.024358353299668
 131    -0.007885663887655
 132    0.00044300607657397
 133    0.0017127180191505
 134    0.0019232677280202
 135     0.065028326358194
 136     -0.10740707343803
 137    -0.063791613462546
 138    -0.0038167017348941
 139     -0.12294695526193
 140     -0.12550312998781
 141    0.0028506386305662
 142     0.052490804588802
 143     0.086248734153972
 144    0.0038645117029417
 145    0.0015445008205936
 146    0.0001032364307201
 147      0.00695120709075
 148    0.0014614029971738
 149       -0.153012124916
 150    -0.019896277393663
 151    0.0025897295010596
 152    -0.015618684641168
 153    -0.00062970457188416
 154     0.018309821082198
 155    0.0091177548084057
 156    0.0010725222600761
 157    0.0048124837358025
 158    0.0030119136913505
 159     0.060668725619425
 160     0.018346263374441
 161    -0.0046529334695253
 162    0.0042323705383491
 163    -0.00097644041267304
 164     0.016411173948036
 165    -0.016044453811539
 166    -0.031106443188457
 167     0.044142600200585
 168     0.064104271313081
 169     -0.03670093213175
 170    -0.034764821074947
 171     -0.04455873316467
 172     0.016577644677444
 173    0.00045848327594104
 174    -0.0020978939674667
 175    -0.0016548578828638
 176    -0.00054431730430854
 177    0.0028398577914335
 178     0.062114253809175
 179      0.01353496406387
 180    0.0018447833611291
 181    0.0034979202281695
 182    -0.0034007250157509
 183    -0.0083371824326872
 184    0.00050844817273134
 185    -0.0013988164787171
 186    -0.0020824257338988
 187    0.00042324690072691
 188    -0.026960169620742
 189    -0.002491917128809
 190    -0.0029529074176816
 191    0.00010384929789114
 192    0.00099253007638694
 193    -0.078509990021797
 194    -0.055418292046282
 195    -0.034399363577306
 196    -0.019143449950001
 197     0.086539791907399
 198    -0.068251846514817
 199     0.017325221189382
 200    -0.057549861793543
 201     0.033522568770069
 202    -0.0033436817195294
 203     0.004198796162537
 204    0.0004146695954892
 205    -9.6733934235534e-05
 206    -0.001347062224695
 207    -0.085495668208956
 208    -0.013603597928305
 209    0.0049815257167515
 210    0.00064778744542535
 211    -0.0073311279579322
 212     0.011177237084599
 213    0.0061217635288221
 214    0.00070916042436179
 215    -0.0019741823432502
 216    0.0024879994855582
 217     0.049414164930015
 218     0.013175485309142
 219    -0.0038577721259994
 220    0.0003355565744791
 221    -1.4452323689005e-05
 222    -0.010110010436544
 223     0.017286291293596
 224     0.034131395722476
 225    -0.060121841365897
 226    -0.016797903551592
 227    0.00021418770039544
 228     0.045975051740637
 229     0.019209980021386
 230    0.0067193647465573
 231    0.00033484430394738
 232    0.00094450851899047
 233    -0.00018929773014907
 234    -0.0002038479565243
 235    0.00023183984531102
 236    -0.0062635750947565
 237    -0.0016259512432342
 238    0.0016389125664677
 239    -0.00037503130657238
 240    -0.00036960486413123
 241    -0.0014215454419704
 242    -0.0020452196515284
 243    0.0016914875168959
 244    0.00031248694549185
 245    -0.00076403574295267
 246    -0.028037253133972
 247    -0.0070035215548153
 248    -0.001405382138197
 249    0.00097116667136276
 250    0.0021628511019352
 251      0.18670347044229
 252     -0.13075040991523
 253    -0.029489335518783
 254    -0.021761207037092
 255    -0.067630590026523
 256     0.018099854110959
 257    0.0096904760778972
 258     0.042917821524006
 259    -0.0084569635475867
 260    0.0022175304343129
 261    0.00056943770839406
 262       0.0011109828964
 263    -0.00048129548590707
 264    -0.0011789438120276
 265      -0.0231779580517
 266    0.0014824437350348
 267    0.00091380143936023
 268    0.0044251795425132
 269    0.0034794922927374
 270    -0.055369716739632
 271    0.0027798748735529
 272     0.006990368738141
 273    -0.0032482133473125
 274    -0.0013971048586884
 275    -0.084746737910081
 276     -0.01104686434964
 277    -0.0089470305560184
 278    -0.0045615014429766
 279    -0.000200334695581
 280    -0.073132701943061
 281     -0.13301439931144
 282    -0.068793855233315
 283    -0.055248475908787
 284    -0.028980178948438
 285     0.071294999516976
 286     0.049432477270644
 287     0.023378625522513
 288    -0.033700044480379
 289    -0.0015612514282778
 290    -0.0021425301588089
 291    -0.0031897223889355
 292    -0.00017193047545448
 293    0.0014843583143402
 294    -0.085719315645373
 295    -0.0058841972814358
 296    0.0012069516803326
 297    0.0059781064235984
 298    0.0085902287567419
 299     0.027305071387417
 300     0.014871279109928
 301    0.00048113928229831
 302    -0.00063576912775134
 303    -0.0016993866387105
 304    -0.036558592719554
 305    0.00045085162989586
 306    0.0048726566820097
 307    -0.0040594540979616
 308    -0.0023562740375479
 309     0.025158290460236
 310     0.017638224646813
 311    0.0014099094835031
 312     0.063005505186904
 313    -0.075224347717536
 314    -0.0023707969336532
 315    -0.032759266617132
 316     0.044463768197228
 317     0.005084845457167
 318    -0.0010786960235675
 319    0.0019342343106292
 320    0.0002798848575948
 321    -0.0038514736071093
 322    -0.00080420587084401
 323     0.072860900201701
 324     0.013611564344161
 325    -0.00033235593545901
 326    -0.0070453510983156
 327    -0.0021151275988249
 328     0.023506032004152
 329    0.0078603592157964
 330    0.00054285369739681
 331    0.0032223939324203
 332    0.0029261685291068
 333    -0.044492584150281
 334    -0.0046864059876169
 335    0.0019268274182504
 336    0.0024233001534344
 337    -0.0024125212221729
 338    0.0034511698770102
 339     -0.14190224863273
 340    -0.052084919948892
 341    -0.029564263957001
 342     0.023838499995266
 343    -0.054086791605256
 344     0.013607693936432
 345    -0.0032315241665645
 346      0.03646194002494
 347    0.0014402807327396
 348    -0.0017386640844326
 349    0.00050522763357231
 350    -0.00098156174077504
 351    0.0022326934904463
 352     -0.03363618981431
 353    0.0023652754766601
 354    0.0045605922249362
 355    0.0036945670903515
 356      0.00304153836508
 357    -0.0085526762722093
 358    0.0080578244728979
 359    0.00031033662061126
 360    -0.0025595027016499
 361    0.0036764027475383
 362     -0.09242275010329
 363    -0.0083979285565902
 364    -0.0090132510109989
 365    0.0045089265926915
 366    -0.0049016554627602
 Sym= A
 Ene=              38
 Spin= Alpha
 Occup=    1.00000
   1      0.21336202074994
   2     -0.10810548258583
   3     0.095878062579564
   4    -0.0076058999619143
   5    -0.00012183782031651
   6    -0.092455213307012
   7     0.006135298672152
   8     -0.02376555256604
   9      -0.3295305176925
  10     -0.20963205471058
  11      0.16717479297515
  12     0.019674071290393
  13     0.023588303670123
  14    -0.014197770873613
  15    0.0004732811743542
  16    0.0013623872786816
  17    -0.0021802452185038
  18    -0.00047807958429915
  19    0.0015857906637825
  20    -0.00072369615239657
  21    -0.0012438376264301
  22    0.0020961795196094
  23    -0.0010783501895203
  24    -0.0020044792462081
  25    -0.00095027633713768
  26    0.00035370815374434
  27    0.0017895437001419
  28    0.0016266343359793
  29    0.0015161358370339
  30    -7.0924573633773e-05
  31    -0.00018584443143229
  32      0.17404290515426
  33     -0.20228908260384
  34     0.056602530587718
  35    0.0087279416531848
  36    -0.00026704336363246
  37     -0.12303755531104
  38    -0.086516947862724
  39     0.047835150483903
  40      0.28509285725222
  41      0.14599979071582
  42      0.10567748432686
  43    -0.022711264963761
  44    -0.0019795197060203
  45    -0.0095204536255356
  46    0.00032693519667004
  47    0.0002678803428565
  48    -0.00055377114707156
  49    -0.00029238850781657
  50    0.00039964382134421
  51    0.0010302651989404
  52    0.00079866260445648
  53    -0.0017599511836701
  54    0.0016768490351473
  55    0.0018266129358973
  56    0.0015658867917285
  57    0.00022629320201048
  58    -0.00046056535014784
  59    -0.0011040754529404
  60    -0.0013031031381374
  61    -0.0010370965614821
  62    -0.00086265342507282
  63    -0.0071944630867968
  64    -0.00086413655884705
  65    -0.0015105775470826
  66    -0.0011106379371077
  67    0.0057053130303406
  68    0.0020258544297092
  69    -0.0032181265838131
  70    0.0070735317361534
  71    0.0093128493035277
  72    -0.00010922275403613
  73    0.00043309013868375
  74    0.00024604131210984
  75    -0.00044572469201622
  76    0.00036021364653952
  77     -0.18711553823727
  78    -0.047351804326904
  79    -0.042499600014121
  80     0.045019541752981
  81    -0.046325213828219
  82     -0.10938862511783
  83    -0.013666936227233
  84     0.027444326640245
  85     0.071652920386377
  86    0.0023396633822162
  87    0.0042137385642643
  88    -0.0015010932855988
  89    -0.0036986793689212
  90    0.0011499262511211
  91     -0.10640611718659
  92    -0.015626841212399
  93    0.0095030788268262
  94    -0.0026515328319228
  95    -0.0049013249375411
  96     0.045656253501821
  97    0.0095469808941637
  98    -0.0031392712015004
  99    0.0028311883879678
 100    -0.00045105637424275
 101     0.018705390410633
 102    0.0065687270157425
 103    -0.0017909121471182
 104    0.00036122256154962
 105    0.0033209877722581
 106    0.00064849011208546
 107     0.053091107214211
 108     0.020211321347152
 109     0.031445188468325
 110     0.025969011429557
 111     0.033372110926726
 112    -0.022320019421639
 113    -0.017097071225706
 114    -0.017853934270989
 115    0.0017638602200854
 116    0.0003780581401379
 117    0.0011725570758056
 118    -0.00057695363500504
 119    -0.0011977224815979
 120     0.018728025271833
 121    -0.0062605090823276
 122    0.0014755305907067
 123    -0.0024153505933424
 124    -0.0016178561586976
 125     0.051755860513791
 126    0.0077824105785823
 127    0.00037060028401216
 128    0.0024249250864518
 129    0.0053329922762061
 130    -0.013579642031045
 131    -0.0068774215470908
 132    -0.00047580423537867
 133    1.8587862703631e-05
 134    -0.0017769903870269
 135     0.044296354883206
 136    -0.076394328292868
 137    -0.019064692802171
 138      0.02387787013531
 139     0.045140980679869
 140     0.047642277044464
 141    -0.017564236658175
 142    -0.027738293730851
 143    -0.028006752615144
 144    -0.0017112046872778
 145    -0.0015568247616115
 146    -0.00027776283249706
 147    -0.0024668148085709
 148    -0.00064734802497144
 149     0.018646635850237
 150     0.007189230073546
 151    -0.00048975372333477
 152    0.00014748587272047
 153    -0.0012987693941377
 154    -0.027051753717143
 155    0.0016881743982627
 156     -0.00437091704007
 157    -0.00081681725152616
 158    -0.00023340378188698
 159     -0.06982583167405
 160    -0.0060597693456627
 161    0.0059589601638703
 162    7.185677514862e-05
 163    0.0046908983747821
 164      0.10045737921327
 165     0.053982285386552
 166     0.037469506352235
 167     0.016518379713258
 168     0.012425021712698
 169    -0.063285839573376
 170    0.0024860274237849
 171    -0.0057749915233737
 172     0.043269022280887
 173    -0.001133837548992
 174    -0.0010701325449917
 175    -0.0026646029403572
 176     0.000491715179376
 177    0.0016526031568539
 178     0.063648860530664
 179     0.010690629676332
 180     0.003183365184179
 181    0.0052097080080271
 182    -0.0034792056973936
 183    -0.021532338123931
 184    -0.0088488069300292
 185    -0.0015449922283835
 186    -0.00089490726272256
 187    0.00015120047466991
 188     0.013481295718741
 189    0.0050297079627774
 190    0.0009870374551061
 191    -0.0027033838797571
 192    0.0019088885788436
 193      0.14603339215357
 194     0.036638207172704
 195     0.016720373686588
 196     -0.09099545900825
 197    -0.043055906440699
 198    0.0070663679613216
 199     0.044833293231087
 200     0.021456644731011
 201    0.00091505635012592
 202    0.0018040528297347
 203    -0.0014192136795809
 204    -0.0025287303468625
 205    0.0020538010078403
 206    -0.0030456415072431
 207     0.061696675355523
 208    0.0091667925493172
 209    -0.00027497076579748
 210    -0.0011196370517515
 211    0.0073803077045415
 212    -0.059568007601424
 213    -0.013937205466424
 214    -0.00042329432769672
 215    -0.0037549914331079
 216    -0.0024391296502187
 217     0.051590982055439
 218    0.0071161242540972
 219    -0.0022197538346314
 220    0.0049806510904802
 221    -0.0041905441996417
 222      0.25004066130385
 223     0.029323204525119
 224     0.015014375566759
 225    -0.029527309031487
 226    -0.053768748524962
 227      0.12597978671115
 228     0.019101672325292
 229      0.02954958573645
 230    -0.070443177641783
 231    0.0043214360277876
 232    0.0049423548790825
 233    -0.0020523634831141
 234    -2.85882378609e-05
 235    -0.00035715973438298
 236    -0.028155364860627
 237    -0.0097076295295031
 238    0.0007287702824453
 239    -0.00098476087259211
 240    -0.0047308018120934
 241      0.11479137016263
 242     0.016705459243246
 243    0.0052133804342477
 244    -0.0032263477937284
 245    0.0094028741367491
 246    -0.055680533825956
 247    -0.013728452830244
 248    -0.0041129643312722
 249    0.0032898602628944
 250    -0.00073885434025761
 251     -0.11135000314444
 252     0.019073930873823
 253     0.018199919251854
 254    -0.029022292031707
 255      -0.0217398943269
 256    -0.0044055079710153
 257     0.020166845687365
 258     0.015835221502206
 259    5.2829662497796e-06
 260    0.00087890112927043
 261    7.6900983467167e-05
 262    0.00051339232522747
 263    -0.00041181463524926
 264    -0.0014875636444967
 265     0.016025210120693
 266    0.0033056398456071
 267    0.00023378396018109
 268    -3.5744441794292e-05
 269    -0.0016037641451039
 270     0.011356034904632
 271    -0.0038742633214723
 272    -0.00017109535163494
 273    0.0011792416266183
 274    8.7355421298178e-05
 275    -0.024499010535228
 276    -0.0088663538635859
 277    -0.0015047308366884
 278    -0.0013964301446679
 279    0.00087228567521144
 280     0.052286508519065
 281     -0.01265815676114
 282    0.0017295040814758
 283    0.0014014919761784
 284    -0.043825638173322
 285     0.076397140550178
 286    -0.004009834181853
 287     0.022882422520695
 288    -0.043783806115957
 289    -0.0007218121383688
 290    -0.0016625215413018
 291    -0.0026832617097136
 292    9.7348578599557e-06
 293    0.0028487227051977
 294    -0.042405891960666
 295    -0.0089627494798496
 296    0.00018182804687958
 297    0.0038952308745407
 298    0.0025736448258069
 299     0.060021108981433
 300     0.014751267288562
 301    -0.0035640622376307
 302    -0.0036321033475037
 303    0.0016689891626845
 304    -0.035339181375581
 305    0.00045853350035316
 306    0.0025832329274533
 307    -0.0020382775774495
 308    -0.0025568269719343
 309    0.0076214480921827
 310    -0.047174423836868
 311     -0.01874638157548
 312    -0.043134336100245
 313    -0.057032796612226
 314    -0.075949991547741
 315     0.028209014205598
 316     0.036502311437908
 317     0.043275505465374
 318    -0.0028775754781694
 319    -0.0030138858748225
 320    -0.0004060668006454
 321    -0.0027290945458264
 322    -0.0010401793825981
 323     0.036872263296386
 324    0.0079140161515219
 325    0.0017068994880446
 326    -0.0020297789382046
 327    0.0017940737053377
 328    -0.091355642062122
 329    -0.011900866131157
 330    -0.0070074621145945
 331    -0.00087680658656479
 332    -0.005632013148416
 333    -0.0098383956373284
 334    0.0027467203651307
 335    0.0032697697704165
 336     0.001505701571562
 337    0.0021116703115587
 338     -0.19462779625116
 339     0.012655483374788
 340    0.0023359725893762
 341     0.026895225000419
 342     0.048749731411306
 343    -0.025019415698476
 344    -0.0091984916776044
 345    -0.027021842235805
 346     0.014197772119828
 347    0.0018622800057907
 348    -0.0019864882351315
 349    -0.0010234089411584
 350    0.00074364463648805
 351    -0.00057592407193302
 352    -0.038936895021073
 353    -0.0068345718206188
 354    0.0019844423300507
 355    0.0027363665479478
 356    0.0020834217250657
 357     0.041741139388566
 358    0.0076611244527285
 359    0.00065361280127742
 360    -0.00050568326672962
 361    -0.0035488608235785
 362    -0.0075718107203243
 363    -0.0013297115140344
 364    -0.0021725060162356
 365    -0.0011953986591572
 366    0.00039378138968539
 Sym= A
 Ene=              39
 Spin= Alpha
 Occup=    1.00000
   1      0.29406271238131
   2    -0.038807050208297
   3    0.0052460434327459
   4     0.001081590787465
   5    0.00025053184807815
   6       0.3630705755111
   7      0.39396369198863
   8     -0.14183636217919
   9    -0.0039710502124002
  10    -0.0017569959272937
  11    0.0089443062099274
  12    -0.0038427176769635
  13    -0.0037802811366298
  14    0.00019544516473553
  15    -1.3646390991118e-05
  16    6.0732393776297e-05
  17    -2.1248655350634e-05
  18    3.3798151914441e-05
  19    7.6265920162224e-05
  20    -0.00020991488669933
  21    -0.00013184169336009
  22    6.9921474930168e-05
  23    6.6034114149092e-05
  24    -0.0002772090747346
  25    0.00011634827053528
  26    7.7819450558518e-05
  27    -0.00012795212360755
  28    -0.00012006131405887
  29    -5.5791402069248e-05
  30    -8.9249951679185e-05
  31    -6.8298501855337e-05
  32      0.17037636170755
  33    0.0094870870120042
  34    0.0079396881584128
  35    0.00016699128086483
  36    -0.00026402727588853
  37      0.54127388067926
  38    -3.6941885412378e-05
  39      0.53374780494204
  40    0.0033641371685592
  41    0.0096897392382042
  42    0.00055431834325728
  43    -0.005854533580472
  44    -0.00021158734072828
  45    -0.005111694530549
  46    -2.517143814563e-05
  47    -7.0320340831749e-06
  48    -3.9095287148739e-06
  49    -2.5016873975678e-05
  50    -3.4715210434126e-05
  51    4.6685682848013e-05
  52    0.00022125145212022
  53    -0.00013484405187949
  54    -0.0001452876561753
  55    0.00022665050379451
  56    0.00011431190078982
  57    0.00011082762712071
  58    0.00015695075891254
  59    -1.1279547740387e-05
  60    -0.00012708232643749
  61    -0.00013082577827251
  62    -0.00018875312446409
  63     0.023590974805353
  64    -0.0010724122681458
  65    2.2179818204898e-05
  66    -0.00065692425657844
  67    -6.519347640813e-05
  68    -4.4457487495777e-05
  69    0.00096419951032087
  70    0.00087658713393999
  71    0.0010241906763413
  72    7.7677655029067e-05
  73    -1.5047383954304e-05
  74    4.3962302370452e-05
  75    -2.2010296677165e-06
  76    4.4932853835624e-05
  77      0.01425264253714
  78    -0.0018503353611488
  79    0.00062073913865863
  80    -0.0024259150775478
  81    -6.9172715392996e-05
  82    0.0017450930772944
  83    0.0010122351890123
  84    0.00050821489462999
  85    -0.0014677262722705
  86    -9.5255291666091e-05
  87    -8.4902001714278e-05
  88    3.6664298344061e-05
  89    7.5799896564043e-05
  90    -1.4234931983259e-05
  91    0.0018985222038983
  92    0.00031792911934965
  93    -0.00012746760894441
  94    3.7598679915969e-06
  95    0.00013858020574912
  96    -0.0011322493477674
  97    -6.0130803264408e-05
  98    0.00012018728507005
  99    -7.599458125755e-05
 100    -6.6869151161485e-06
 101    -0.00049036187482409
 102    0.00020552653110939
 103    4.9224855119096e-06
 104    1.6862595255683e-05
 105    -4.9530991557348e-05
 106     0.010833075738836
 107    -0.00081798305257225
 108    0.00045037876046488
 109    -0.0028969660502792
 110    -0.0023277572402136
 111    -0.0004110343267945
 112    0.0024631798561436
 113    0.0017577144101758
 114    0.00070916833775902
 115    -0.00013280560541955
 116    -4.4088035852262e-05
 117    -9.150390029886e-05
 118    6.1911242415866e-05
 119    0.0001641074095438
 120    -0.00050411731991845
 121    2.3033199977101e-06
 122    -5.9241414493754e-06
 123    2.3989292039792e-05
 124    -3.9610717381428e-05
 125    -0.0013694259071775
 126    -0.00025038444176479
 127    -2.4303333753847e-05
 128    2.2201406581495e-05
 129    -8.491848016492e-05
 130    0.0025645796230426
 131    0.0005171185970947
 132    -0.00015875354181393
 133    -0.0001148750964546
 134    4.6271580749133e-05
 135      0.01458762266522
 136    -0.0010826804939129
 137    -0.0012662388628364
 138    -0.0010489963445832
 139    -6.6972845499807e-05
 140    0.00072677468078021
 141    0.0012902157038248
 142    0.00013591068849259
 143    0.00069934659439253
 144    2.3574001013346e-06
 145    8.7499601693225e-05
 146    1.4836195091356e-05
 147    -1.5899732506521e-05
 148    2.1960573615691e-05
 149    0.0002256632622582
 150    -3.1735567610924e-05
 151    -8.3061754800265e-05
 152    4.2562912494535e-05
 153    -3.1234796104296e-05
 154    -0.0010582174585025
 155    -0.00057022125765433
 156    -0.00010760795481154
 157    -0.00010091739043433
 158    2.9002514196096e-06
 159    -0.00027524929433921
 160    -0.00021177247481493
 161    6.1122983914576e-05
 162    1.3541363317441e-05
 163    8.094818185789e-06
 164     0.041038997753287
 165    -0.00067683722546678
 166    -0.0010532706903306
 167    -0.00057602320066518
 168    -0.004662829066134
 169    0.0020008137835133
 170    -0.0004215000822623
 171    0.0027272242224175
 172    -0.001848818483809
 173    -7.8651597034305e-05
 174    0.00010854382692692
 175    8.9020070755647e-05
 176    2.4261855285313e-05
 177    -0.00025297187766053
 178    -0.003140251109189
 179    -0.00082688110087082
 180    -0.00012437876566839
 181    -4.5181737783707e-05
 182    9.2639791827424e-05
 183    -6.5525668120265e-05
 184    -0.00025831794445068
 185    2.9153949600141e-05
 186    9.2914169032237e-05
 187    3.2245666010568e-05
 188    0.0031439558892416
 189    0.00015704329816374
 190    0.0002344391969852
 191    -0.00019722774638443
 192    5.1332381942402e-05
 193    -0.0076999643037099
 194    0.0003384714920159
 195    -0.0010848587347902
 196    0.0034011957453539
 197    0.00065645865982357
 198    0.0025617504053172
 199    -0.00085811496702436
 200    -0.00013587461889108
 201    -0.0020550063087203
 202    4.6914166722036e-05
 203    -5.8050934178134e-05
 204    2.3229474107082e-05
 205    -7.0443766978971e-05
 206    0.00016125025062343
 207    0.00023484170920768
 208    -3.1118164833298e-05
 209    -0.00018736113080419
 210    3.746707303025e-06
 211    -0.00012335362907228
 212    0.0028645922768951
 213    0.00042210784043357
 214    8.5974054134126e-05
 215    0.00024559386153568
 216    6.7582963693176e-05
 217    -0.0029697372196548
 218    -0.00061786648998506
 219    9.4082835186718e-05
 220    -0.00028360724784344
 221    0.00018295731642845
 222    -0.011093837525999
 223    -0.00020872053747492
 224    -0.0039320495598836
 225    0.00095382782777194
 226    -0.00099578667545758
 227    -0.0020275543992616
 228    -0.0020398536107349
 229    -0.00049133345357074
 230    0.0013421566914469
 231    -4.1742838832608e-05
 232    -0.00014015017873459
 233    4.4490261723681e-05
 234    1.8969749548152e-05
 235    -6.4728988032123e-05
 236    -0.0012120458614514
 237    -0.00047867069815745
 238    -1.1420718367653e-05
 239    -0.00020202731145013
 240    -5.0709673245295e-05
 241    -0.0010731867185327
 242    -0.00012045206916816
 243    -5.810984113698e-05
 244    8.963102569738e-05
 245    -6.4607902360199e-05
 246    0.0014764946671015
 247    0.0002532046374711
 248    7.8826823624083e-05
 249    9.492782163599e-05
 250    -5.4142045732869e-05
 251     0.012386256212039
 252    6.6563332728154e-05
 253     0.001612253327089
 254    -0.0028011002617035
 255    0.00065478217147813
 256    -0.00055529216427505
 257    0.0028555765968183
 258    0.00066395524419541
 259    0.00034719870466453
 260    3.7854307918317e-05
 261    -4.1581363417803e-06
 262    -1.3872470788479e-06
 263    -5.3884068617379e-05
 264    -0.00018221880592276
 265    0.0001838243868205
 266    -4.0935981171357e-06
 267    -7.6631696887768e-05
 268    -2.0905711938558e-05
 269    -2.6988108216275e-05
 270    0.0021471134040061
 271    0.00058309751875519
 272    -0.00022343969235926
 273    8.6056408167979e-05
 274    -0.00012406775946087
 275    -0.000939779075859
 276    -9.8661349427472e-05
 277    7.3458147297142e-05
 278    -6.3403086238523e-05
 279    3.5013527565835e-05
 280     0.022168707402516
 281    -0.00085959341958038
 282    0.0040306624812024
 283    0.00022709455980333
 284    0.00013277561946877
 285    0.0018089660520075
 286    -0.0016009611068423
 287    -0.0010394241981038
 288    -0.00089455272113938
 289    -6.6733621524617e-05
 290    5.3375053840057e-06
 291    -1.3547079956288e-05
 292    4.9307684147803e-05
 293    4.7421718314563e-05
 294    -0.0014148527714348
 295    -0.00013520407873369
 296    -2.4811055157283e-05
 297    0.0001302192092223
 298    2.8845428901964e-05
 299    0.0010572850765022
 300    0.00025887354604927
 301    -7.7129096838666e-05
 302    -0.00014023634688011
 303    6.2521317119757e-05
 304    -0.0001434153693267
 305    -4.6901335122515e-05
 306    -5.2084500847876e-05
 307    1.7781792537833e-06
 308    -0.00014143663090296
 309     0.014635662651349
 310    -0.00090878078605864
 311    -0.0015311496189225
 312    -0.0012668357405454
 313     0.003109713937786
 314    0.00011784399556779
 315    0.0020344687208806
 316    -0.00073038748175796
 317    -5.794040810114e-05
 318    3.2731017307434e-05
 319    -8.251313034261e-05
 320    -1.5133391924408e-05
 321    0.00013108734763022
 322    -2.1295073773512e-05
 323    -0.0028124735960735
 324    -0.00053116395113155
 325    -0.00022448122229308
 326    0.00021115559678802
 327    4.2086528507778e-05
 328    0.00046431787041315
 329    -7.2420935899631e-05
 330    6.6952260466184e-05
 331    -3.6443367477255e-05
 332    6.0628121432456e-05
 333    0.00073173857481979
 334    0.00015753384059034
 335    -5.9837122192861e-05
 336    -0.00026326233327783
 337    -3.0366980818859e-05
 338     -0.01626903546615
 339    0.0015938830086661
 340    0.00049901781459975
 341    -0.0021503649949712
 342    -0.0012969374573677
 343    -6.190096376355e-06
 344    0.0024954598955756
 345    0.00046696147573655
 346    0.00098781864139796
 347    -6.2863555426584e-05
 348    -2.9910248352971e-05
 349    7.0500770101179e-05
 350    -6.0682494690569e-05
 351    0.00012926450300648
 352       0.0018303598491
 353    0.00038352246008647
 354    -6.8079646181022e-05
 355    -3.7705983768461e-05
 356    -0.00021499943676601
 357    -0.00094888841732497
 358    -0.00017125086413797
 359    -0.00017200801790036
 360    -2.5517673092634e-05
 361    4.5783696750082e-05
 362    -0.00019789444101808
 363    -1.7871589535747e-05
 364    2.5979406097469e-05
 365    5.236509396267e-05
 366    5.2367087759283e-05
 Sym= A
 Ene=              40
 Spin= Alpha
 Occup=    1.00000
   1    -0.064464537282002
   2      0.15579877816184
   3    0.0035057604698192
   4    -0.0038634008170057
   5    -0.00048874242133888
   6      0.34060167401477
   7     -0.73340939956332
   8    -0.058090080953282
   9    0.0038273757001845
  10    -0.0055475952622923
  11     0.031401619796847
  12    -0.0029650591007672
  13    0.0070218859349096
  14    -0.0029610329806992
  15    -6.4931508447072e-05
  16    2.1519736760354e-05
  17    7.6424522243826e-05
  18    4.2470508978913e-05
  19    -8.0406830487411e-06
  20    2.3375593043514e-06
  21    0.0001043897544278
  22    -0.00023880424692746
  23    0.00019173119040804
  24     0.000223964779367
  25    -0.00011042572454861
  26    2.0847424734796e-05
  27    0.00031243276718662
  28    0.00016420658782322
  29    -0.00012958306620753
  30    8.5442747363314e-05
  31    -5.5701342201244e-05
  32     0.019022518490905
  33    -0.089196160936151
  34    -0.0021555131033705
  35    0.0013539221192141
  36    -0.0010194517640552
  37    0.0062785223600931
  38       0.4158053701335
  39      0.33771393621553
  40    -0.0066601488756225
  41    0.0090696393728945
  42     -0.03973924933132
  43    5.2316985760697e-05
  44    -0.0050877256312028
  45     0.001198808498426
  46    -0.00012914518072965
  47    8.0299453471969e-05
  48    -1.3579438454735e-05
  49    9.6037524191087e-05
  50    3.2909032610491e-05
  51    2.970906530895e-05
  52    2.4891952378918e-05
  53    9.5713606911178e-05
  54    0.00012028821065959
  55    0.00011244092362227
  56    4.5434918444385e-05
  57    1.2102493000709e-05
  58    -0.00020034417604902
  59    -0.00010016051768977
  60    0.0001047031334781
  61    -2.7189151827585e-05
  62    1.931696981669e-05
  63    -0.0092695257313043
  64     0.001355741463428
  65    -0.0016705559626768
  66    -0.00026122263247581
  67    0.0004036220592378
  68    0.00012072204115408
  69    0.00042527385126057
  70    -0.000245888768131
  71    0.00042184151412999
  72    -0.00013400913773078
  73    -0.00014244349247176
  74    0.00023548041673233
  75    -0.00014720520755228
  76    -0.00028890382892634
  77     0.020761270987821
  78    0.0013245466256777
  79    0.0038458071779439
  80    0.0020905474054954
  81    0.00023945382126546
  82    0.00015107962683904
  83    -0.0020887645210676
  84    -0.0023624863559719
  85    -7.4420090739723e-05
  86    4.4929670306596e-05
  87    9.0929046112464e-06
  88    5.4295738215994e-06
  89    5.9819465748131e-05
  90    3.7154917054427e-05
  91    -0.0006327267230912
  92    -6.6823192171758e-05
  93    -3.27248750974e-05
  94    0.00018891882683501
  95    -0.00011458176173995
  96    -2.6986513371195e-06
  97    -0.00015648458838245
  98    -0.00011684134421413
  99    0.00020124139331937
 100    1.7023300029099e-05
 101    0.0010232581081348
 102    0.00013459571278006
 103    4.3167821851707e-05
 104    -0.00022956390728901
 105    2.7776444596907e-05
 106    -0.036600959737947
 107    0.0036383621785824
 108    -0.0021863939763937
 109    0.0032028681936489
 110    0.00038573104654909
 111    0.00098043624345688
 112    -0.00099030108241199
 113    -0.00079152222886499
 114    -0.0014763653859281
 115    6.5041622461646e-05
 116    7.448656433562e-05
 117    0.00012526379297148
 118    -2.0098510085099e-05
 119    -0.00014067643001287
 120    0.0027068121962559
 121    0.00084614500113192
 122    0.00015614901973358
 123    -0.0001131601990058
 124    -0.00011634691275904
 125    0.0015400963930441
 126    0.00041558546288502
 127    -0.00020422776860132
 128    7.2397460350727e-05
 129    9.7849413407544e-05
 130    -0.0017953136365024
 131    -0.00026600823123587
 132    3.8308268060584e-05
 133    0.00023019921917979
 134    3.7257536496736e-05
 135    -0.031234090187734
 136    0.00090934807321598
 137    0.0022838732551023
 138    0.0016717362263266
 139    0.0033083533803247
 140    -0.00051261552720522
 141    -0.00010942545728893
 142    -0.0017434317459775
 143    -0.0013181153693728
 144    -7.4285240196986e-05
 145    -9.2432821661407e-05
 146    -1.1030923737155e-05
 147    -0.0001561802184462
 148    -6.0137270034661e-06
 149     0.001871141462354
 150    0.00071683327380909
 151    -0.00017682972218789
 152    6.626076681356e-05
 153    5.0803083406359e-05
 154    0.0013317174718717
 155    0.00076872001399035
 156    0.00012853849245243
 157    -9.0904963035273e-05
 158    7.5888872571667e-06
 159    -0.0014562869789468
 160    0.00023109442564743
 161    -3.4154571834003e-05
 162    2.2240315591531e-05
 163    0.00021581556607959
 164    -0.049269476374994
 165     0.002587839906156
 166    -0.0021703772983977
 167    0.0044044927187035
 168    0.0014223727964557
 169    0.00023435607126288
 170    -0.0026653142765183
 171    -0.0024199816841059
 172    0.00012943756339502
 173    5.5901377884794e-05
 174    -6.5880209231529e-05
 175    -6.3641803350007e-05
 176    -2.3368706310847e-05
 177    2.0512784538427e-05
 178    0.0018765616013127
 179    0.00091119005576634
 180    -0.00010765059748965
 181    0.00021817666809711
 182    -2.1045304954601e-05
 183    0.00056976199707903
 184    0.00052638559176505
 185    -0.00014739316219857
 186    0.00016655014393022
 187    -8.7669418871725e-05
 188    0.0018948891426879
 189    0.00045877486201105
 190    -7.7500738424902e-05
 191    -0.00022925014221135
 192    -2.9621516303073e-05
 193    -0.0081341718706648
 194    2.8834480394429e-05
 195    0.0027877513097084
 196    0.00027860957012977
 197    -0.00022585275265259
 198    0.0026256171114588
 199    -0.00072640863840599
 200    0.00045393042484898
 201    0.00044906910157514
 202    4.6104361492304e-05
 203    -4.5529925732895e-05
 204    8.5692940856903e-05
 205    -2.6468666895145e-05
 206    3.3909407611802e-05
 207    0.0020373759195051
 208    0.00069331614315702
 209    -0.00018253747454149
 210    -0.00010032846359554
 211    0.0001433049899758
 212    0.00038955258855842
 213    0.00036223781793715
 214    2.0063156131715e-06
 215    0.00011150680684195
 216    -0.00021669537574262
 217    -0.0017359939680679
 218    -1.0172377742261e-05
 219    0.00021729468131108
 220    5.5550112275191e-06
 221    2.8449458552495e-06
 222      0.10528344706783
 223    -0.0058762984650895
 224    0.0011071813678059
 225    -0.0043709927992301
 226    0.0081029432771125
 227    -0.010799951351485
 228     0.002314253506701
 229    -0.0031662707396431
 230    0.0060182390433235
 231    -0.00048964284644306
 232    -0.00032540915656811
 233    0.00022645372152261
 234    -0.00019406156646932
 235    0.00019537627117661
 236    0.0066417659703088
 237    0.0013048894552035
 238    4.2140057877581e-05
 239    0.00070053191382512
 240    0.00032863401459228
 241    -0.011514869645775
 242    -0.0021863090535902
 243    -0.00021903195056406
 244    9.0408266613226e-06
 245    -0.00083733750490429
 246    0.00050146927775299
 247    6.1956043032027e-05
 248    0.00028773797016108
 249    -0.0004468456267391
 250    0.00025498510335966
 251     -0.06736748390777
 252    0.0014131362529583
 253    -0.0028132162204238
 254    -0.0029898011503028
 255    -0.0029101137867054
 256    -0.00014723338485177
 257    0.0017525688306819
 258    0.0020282399371667
 259    0.0009636132684948
 260    0.00013104321616611
 261    7.1259607451647e-05
 262    0.0001419093493406
 263    -1.234554328508e-05
 264    -0.00016541228675037
 265    0.00064724253159258
 266    0.00033053731631499
 267    0.00012284008266877
 268    0.00016781428267916
 269    9.0063071949534e-05
 270    8.2056475574017e-05
 271    8.4642688607421e-05
 272    0.00018174128924345
 273    -8.1668304687379e-05
 274    -2.6997454230314e-05
 275    -0.0036999697212284
 276    -0.00022769242111324
 277    -0.00037996600539628
 278    -0.0002854135959079
 279    -7.1592004021698e-05
 280    -0.044988259017062
 281    0.0029738617308743
 282    0.00031505456098432
 283    -0.00014113980575989
 284    -0.0023649939897812
 285    0.00054381207528877
 286    -0.00053138975897929
 287    0.0021145841350044
 288    -0.00058616556205042
 289    7.7431032671577e-05
 290    -5.4946148909414e-05
 291    -2.4372484948435e-05
 292    -2.6050191374718e-05
 293    0.00012070370055618
 294    0.0005652192361403
 295    0.00028998682094621
 296    1.7560793924605e-05
 297    -2.5257592318362e-05
 298    2.2829626626396e-05
 299    0.0017614525931692
 300    0.0002315766908415
 301    8.6030043804593e-06
 302    -9.2457510161931e-05
 303    2.4267437885769e-05
 304    -0.00096320029403643
 305    0.00011379963024241
 306    0.00013484249089245
 307    -2.670374328439e-05
 308    -9.3080885599746e-06
 309     0.040131532403739
 310    -0.0032749261645375
 311    0.0021498911860046
 312    0.0091231500550958
 313    0.0061623923546323
 314    0.0036906526260351
 315    -0.0049740094876924
 316    -0.0033758090995566
 317    -0.00080364664042323
 318    0.00030634486386546
 319    0.00043157190936451
 320    1.728227027279e-05
 321    4.6265873701565e-05
 322    4.9745851674628e-05
 323    -0.0047980245592323
 324    -0.00068613329062648
 325    -0.00043252454022582
 326    0.00034390193876538
 327    -6.8279063729199e-05
 328    0.0080824131057947
 329     0.001573056013771
 330    0.00051913553547979
 331    1.7242485071164e-05
 332    0.00056471076674718
 333    -0.0058502771768957
 334    -0.0010744168624772
 335    0.00022961416154884
 336    -0.00026624860908543
 337    -0.00054209698746594
 338     0.010071635463954
 339    -0.0038492782036515
 340    0.0011275639595169
 341    0.0011257307800507
 342    0.0019001273550853
 343    0.0040055429886858
 344    1.4234146703962e-05
 345    -0.0011396678443597
 346    -0.0031632220588216
 347    -4.6196451274778e-05
 348    7.1365979489685e-05
 349    1.0271750560353e-05
 350    4.0968123151897e-05
 351    -0.00012107817159349
 352    -0.0036261084158021
 353    -0.00042898731363844
 354    0.0002749037474378
 355    0.00031143355683291
 356    4.420495371079e-05
 357    -0.0027806518351563
 358    -0.00019025374267363
 359    -0.00020819393492996
 360    -0.00018486208976468
 361    0.00016491837034645
 362    0.00062454304676571
 363    0.00035352313394695
 364    -4.5992228104416e-05
 365    -0.00016628770645504
 366    -0.0001072291798157
 Sym= A
 Ene=              41
 Spin= Alpha
 Occup=    1.00000
   1    -0.020026308526908
   2     -0.21848001392856
   3    0.0028803467269433
   4     0.002583349299078
   5    -6.0772519555583e-05
   6     0.069886155102312
   7      -0.1349965451533
   8      0.87862304045168
   9    -0.017081976329425
  10    0.0093424653997008
  11    -0.051371736688692
  12    0.00095077368569316
  13    0.00048067719789786
  14    -0.0047153828208411
  15    0.00013239459089686
  16    -5.097707676932e-05
  17    1.1035972451445e-05
  18    -9.1254985773029e-06
  19    2.0062605428804e-05
  20    -0.00010062435601576
  21    8.4920352104158e-05
  22    -0.00011264184951748
  23    -2.6934854072577e-06
  24    2.8140390953681e-05
  25    -7.3218719029564e-06
  26    -1.8271714344654e-05
  27    4.0583765180796e-05
  28    4.404749599918e-05
  29    5.4526157863908e-05
  30    -3.8909118350475e-05
  31    3.4688148771248e-05
  32    0.0029799675789874
  33     -0.18290583729084
  34    0.0039373969745998
  35    0.00042663495723252
  36    0.00069632983327313
  37       0.3305824012714
  38    -0.087262985719665
  39    -0.020750929463508
  40    -0.0022109089632346
  41    -0.012999762456018
  42     0.020618213040031
  43    -0.0031424708602881
  44    0.0017206341412093
  45    -0.001917207723969
  46    -2.4491670267642e-05
  47    -0.00010129764820242
  48    0.00019634360617476
  49    -4.1398486642373e-05
  50    -0.00012276892949401
  51    0.00020009536232632
  52    -5.6618048136358e-05
  53    0.00012990791353759
  54    -6.1918405453488e-05
  55    5.4797390258403e-05
  56    -3.6002341804509e-05
  57    7.2371817526277e-05
  58    0.00012703842307878
  59    3.7528325040157e-05
  60    -7.9397741616349e-05
  61    2.1441380837503e-05
  62    -9.140322953045e-05
  63    0.0031368661154135
  64    -0.00041814730351828
  65    0.00099759197173957
  66    9.1130036784002e-06
  67    -8.2209294562892e-05
  68    -0.00031775911656692
  69    0.00054901210853471
  70    -0.00073958228285695
  71    0.0007869120198052
  72    9.1181988892181e-06
  73    9.7328545548789e-05
  74    -7.2095219785164e-05
  75    -1.8831926610416e-05
  76    0.00010949473527347
  77    -0.019984561331599
  78    0.0041717443780757
  79    0.00062122988154548
  80    -0.0004140874541261
  81    -0.0040314366376502
  82    0.0019471506032302
  83    -2.9158445785931e-06
  84    0.0019758362316722
  85    0.00010314566374172
  86    -9.9744608266312e-05
  87    -3.7066707246769e-05
  88    -1.8575296539656e-05
  89    -0.00013888147715884
  90    5.7556600525172e-05
  91    0.0013825071080113
  92    1.2709040000148e-05
  93    -0.00015711915951379
  94    0.0002892165123098
  95    -3.2450435917816e-05
  96    -0.0017032630276162
  97    -0.00053879843939744
  98    7.0777523456491e-05
  99    3.2937932612912e-05
 100    0.00014630106762954
 101    0.0045093786063352
 102    0.00063550961104669
 103    6.007924834372e-05
 104    -0.00042322998180692
 105    -0.00020178050825328
 106    0.0063647921624406
 107    -0.00071976222554838
 108    -0.0027663780063681
 109    0.0023733316725627
 110    0.0035546743713153
 111    0.0012323607339177
 112    -0.001371539701167
 113    -0.00088237021580706
 114    -0.0014128002057642
 115    0.00012729280100559
 116    3.7977614534164e-05
 117    7.8293142356793e-05
 118    -1.8126079415048e-05
 119    -8.5388737934571e-05
 120    -0.00079700277618566
 121    -0.000113321942866
 122    -0.00020905897908853
 123    -5.8897572719522e-05
 124    -6.825135415994e-05
 125    0.0024504004094501
 126    0.00030429157014123
 127    -2.8298377297073e-05
 128    2.2026734090154e-05
 129    0.00023141365885645
 130    -0.0032428467015242
 131    -0.00064688707246818
 132    0.00031706138441263
 133    5.4249982603249e-05
 134    -0.00011780365876972
 135     0.036553141430353
 136    0.0016847521869777
 137    0.0042137314842776
 138    -0.0027285832633308
 139    0.00065811965691686
 140    0.00071407845378266
 141    0.0013468749765102
 142    0.00097175735071975
 143    -0.0011025878738365
 144    4.0450174374484e-05
 145    0.00014267951435411
 146    -3.0047843579616e-05
 147    -5.596273786857e-05
 148    -5.5312397596935e-06
 149    0.0021303145595827
 150    0.0001559060770237
 151    3.6856037417823e-05
 152    0.00036435570272577
 153    7.9992568256961e-05
 154    -0.0013548888181454
 155    -0.00071409396026206
 156    1.0061818008656e-05
 157    -7.9674065619634e-05
 158    -4.9759387030204e-05
 159    0.0020140390712491
 160    7.3526778522178e-05
 161    -0.00012564799639566
 162    -0.00015959263808526
 163    -0.00027779895296274
 164     0.050855747653373
 165    -0.0022590610835822
 166    0.00082882425007306
 167    -0.00065972770293045
 168    -0.0020390686806191
 169    -0.0038154684901539
 170    -6.9950508779934e-05
 171    0.00090770070457806
 172    0.0031559317041246
 173    -0.00012461957472297
 174    -4.392750271029e-05
 175    -0.00020701188796544
 176    4.7139200857077e-05
 177    2.4500790748141e-05
 178    0.00050189968039257
 179    -0.00018375007341612
 180    7.5257686313958e-05
 181    8.100483705605e-05
 182    4.0288614741147e-05
 183    -0.0032385477281439
 184    -0.00066371584938767
 185    -4.0823179453881e-05
 186    2.1048354687838e-06
 187    -0.00018569872792297
 188    0.00064813168916486
 189    -0.00040614027733539
 190    0.0001324245282512
 191    -7.2333188675847e-05
 192    -3.4760816045122e-05
 193    -0.059251863393147
 194    0.00016504879226848
 195    -0.0029066336082147
 196    0.0011843068943268
 197    -0.00053909775004727
 198    -0.0014666273889152
 199    -0.00016965778358914
 200    -0.00091832212543758
 201    0.0011684060990355
 202    -4.925385383417e-05
 203    9.6422393947909e-05
 204    -1.1300089371581e-05
 205    3.0632669538146e-05
 206    -9.7063390796798e-06
 207    -0.0017087573113128
 208    -0.00015535327358139
 209    3.4035758346983e-05
 210    0.00014672272305452
 211    -0.00030240847630605
 212    -0.00087759754100024
 213    -0.00014078913802618
 214    -0.00026903241351732
 215    -0.00011413893079197
 216    -0.00013016153498312
 217    -0.0012957148328796
 218    -0.00016444805641716
 219    0.00028387538338456
 220    -5.7663452567359e-05
 221    0.00023571412989117
 222      -0.1010984556694
 223    0.0044186760563333
 224    -0.0044152568149452
 225    0.0054387225829438
 226     0.001942534489041
 227    -0.0066418527126449
 228    -0.0043382130175927
 229    -0.0021204364343684
 230    0.0033838653169468
 231    -0.00018228999647842
 232    -0.00034942915839937
 233    9.5187633081245e-05
 234    2.6009614970013e-05
 235    -8.6829394529072e-05
 236    0.0011227443465608
 237    0.00049266393120275
 238    -0.00010068067419865
 239    -0.00012093571990123
 240    0.00022916776814863
 241    -0.0043746667617547
 242    -0.00070612871429757
 243    -0.00037168200707203
 244    0.00025203503548725
 245    -0.00041331705133809
 246    0.0061443576935299
 247    0.0010891586641711
 248    0.00031600363794744
 249    -0.00011487320784992
 250    -0.00011730739843701
 251     0.017634783660687
 252    0.0015174604592191
 253    0.0015208002790185
 254    -0.0043518131173513
 255    -0.00097538100891928
 256    -0.0021343862777266
 257    0.0031450129181367
 258    0.00062805000077421
 259    0.00095766513832904
 260    0.00010235127569755
 261    1.8533912695161e-05
 262    1.4265024467702e-05
 263    -4.5312813056056e-05
 264    -0.00021210523284074
 265    0.0027927411698165
 266    0.00024393088741709
 267    2.9934088523763e-05
 268    -0.00013616033529872
 269    -0.00030535148982361
 270    0.0027852276505443
 271    0.00038234572144772
 272    -0.00016430810267879
 273    0.00030690947442874
 274    2.1236292199694e-05
 275    -0.0024349739562271
 276    -0.0005426731084395
 277    -7.1097932801387e-05
 278    -5.4310583037875e-05
 279    0.00014255186258971
 280      0.10607164761873
 281    -0.00098780107651256
 282    0.0050338045095106
 283     0.001075469806571
 284    1.9893407010929e-05
 285    0.0022458114694385
 286    -0.0017588782210305
 287    -0.00099368764404401
 288    -0.0015487938930092
 289    -0.00010155050291501
 290    -4.9942531159369e-06
 291    -5.0256536665605e-05
 292    6.8726598089154e-05
 293    8.0450628186315e-05
 294    -0.00037738751961779
 295    -0.00048042081355197
 296    7.100173420311e-06
 297    -1.544997916402e-06
 298    -0.00028941475949497
 299    0.0021676785049432
 300    -9.7916248137202e-05
 301    -0.00019832573948604
 302    -0.00030142931876367
 303    0.0003130208033805
 304    0.00046545706162967
 305    -0.00028347043218259
 306    -0.00021339769240609
 307    0.00024841617070159
 308    -0.00011376537647783
 309    -0.0035337725515975
 310    0.0037933903775389
 311    -7.4502434600056e-05
 312    0.0024383758770713
 313    0.0014737916792714
 314    0.0032470855551458
 315    -0.00048786748367035
 316    -0.00056546973814634
 317    -0.0022800258468408
 318    0.0001150086718071
 319    0.00014712012529208
 320    4.7946612034624e-05
 321    0.00013151911700268
 322    -3.3857736117188e-06
 323    -0.00023919767576226
 324    -0.00031997261879068
 325    -0.00018109390235101
 326    -8.4002901225225e-05
 327    -0.0001086895510646
 328    0.0048309757900263
 329    0.00046733424213553
 330    0.00030104230830472
 331    0.0001574076436554
 332    0.00035116937753665
 333    0.00017347759688816
 334    -0.00052209904036686
 335    -0.00011244847718135
 336    -8.5588417650981e-05
 337    -9.1256019167879e-05
 338     0.056492044896069
 339    0.00093185403949265
 340     0.001322355298076
 341    -0.003995930245184
 342    -0.0028064430036206
 343    7.0481831957608e-05
 344    0.0026051966829302
 345    0.0015100347065628
 346    0.00045026564565137
 347    -0.00012171007985174
 348    3.8852182555454e-05
 349    0.00012435089510667
 350    -8.2394037680793e-05
 351    0.00012285916027912
 352    0.0046863578113674
 353    0.00045060919791464
 354    -0.00032036666175849
 355    -0.00043978254562827
 356    -0.00023519561859727
 357    -0.0010695298319745
 358    -0.00058538330785142
 359    6.4415722627268e-05
 360    0.00013634777802987
 361    -2.443878604545e-05
 362    -0.0002457176642872
 363    -0.00047644154446518
 364    0.00018554161561055
 365    9.3363513532896e-05
 366    0.00013843397910726
 Sym= A
 Ene=              42
 Spin= Alpha
 Occup=    1.00000
   1      0.36399953223571
   2     -0.82829296268768
   3      0.02307958019865
   4    0.0035657222123026
   5    -0.00046871993876405
   6      0.11472059212457
   7      -0.2342099209805
   8     -0.29831066266472
   9     0.027022659497266
  10     0.058077974731159
  11    -0.048220388203743
  12    -0.0038899362329843
  13    -0.0039735411836656
  14    0.0063552937604947
  15    0.00024629668949101
  16    -0.0002889757630844
  17    6.2776438272056e-05
  18    -0.00016953716203199
  19    -0.00017306201376509
  20    0.00034319680184834
  21    0.00070987661389473
  22    -0.001132711189241
  23    0.00023412264400805
  24    0.00095737731300934
  25    0.0001279483650845
  26    9.325688736192e-05
  27    -0.00030693417162023
  28    -0.00032287471289918
  29    -0.00014112654591367
  30    -1.0674083423248e-05
  31    -0.00010049690111859
  32     0.080290831492606
  33    -0.055919030821119
  34     0.012358908386123
  35    -0.0013180589691635
  36    -0.00026909325487488
  37     0.041086690323093
  38     0.061152313874473
  39     -0.21987733827978
  40    -0.019650590965515
  41    -0.059534208269963
  42     0.073808888128105
  43    0.0020882296594707
  44    0.0038803035016407
  45     -0.00518316581116
  46    -0.00012090659320227
  47    0.00024841840959306
  48    2.2065690675592e-05
  49    0.00045771952637453
  50    0.00035949496368862
  51    -0.00026352913101213
  52    -0.00026257025963256
  53    0.00076198346340076
  54    -0.00036015407340455
  55    -0.00050709506564324
  56    -0.00014028924688304
  57    3.6066879636785e-05
  58    0.00028009874559165
  59    0.00033523761025206
  60    2.9851027843596e-05
  61    8.7024211746456e-05
  62    4.7991898368497e-05
  63     0.010477868186004
  64    0.0015917323067643
  65    -9.9672434226346e-05
  66      0.00125068249037
  67    -0.0016737169509419
  68    -0.00096344500047475
  69    0.0019748348028548
  70    -0.0023008522609513
  71    -0.0019462967548836
  72    0.00015103791783494
  73    -0.00014623981498342
  74    0.00021233381408659
  75    -2.4856024220861e-05
  76    -4.9555983347327e-05
  77    -0.092299705323579
  78    0.0035869744203967
  79    -0.004831054254798
  80    -0.0075380808947091
  81    0.0059514811139946
  82    -0.0085983078578146
  83    0.0061675082852438
  84    -0.0016951539416875
  85    0.0039124367548504
  86    0.00037824211141057
  87    0.00010993456309336
  88    -8.9015103534734e-05
  89    0.0002628906205622
  90    -0.00022879930227753
  91     0.001693228247397
  92    0.0003955293262929
  93    0.00016105128287291
  94    -0.00033596348335171
  95    0.00033291474978732
  96    0.0095001365350328
  97    0.0024860293309269
  98    -0.00016351774938631
  99    2.6062876247936e-05
 100    -0.00068846127409913
 101    -0.0056998929324742
 102    -0.00094525075512348
 103    9.4663660794438e-05
 104    0.00066468759462185
 105    0.00035679873531797
 106     0.093127059691505
 107    0.00089778487683678
 108    0.0059780119574473
 109    0.0079183366564555
 110    -0.0078326873166688
 111    -0.0090918212642527
 112    -0.0033560591158872
 113    0.0031354430217186
 114     0.006060673058289
 115    -0.00043508051616672
 116    -4.8129792928243e-05
 117    -0.00030303126538536
 118    -7.2810139233774e-05
 119    -0.00042474799210865
 120     0.011714454231689
 121    0.0021125059901954
 122    0.00097600983300551
 123    -0.00080980947338462
 124    0.00022406875706573
 125    -0.0071561243090525
 126    -0.0018051684894941
 127    -0.00039017715650881
 128    -4.7881777048768e-06
 129    -0.00033324604493377
 130    -0.0013153420909475
 131    -0.00062232198110584
 132    -0.0003820586504196
 133    0.00034374382417993
 134    0.00025656352377432
 135       0.1217320516091
 136    0.0056879554809405
 137    0.00030190583681085
 138    -0.00068203333385541
 139    -0.0013869226201137
 140    -0.004700782725719
 141    0.00057600445527398
 142    -0.00043667183840823
 143     0.003638628447076
 144    9.8824833711984e-05
 145    0.00013676255153127
 146    1.9976344749548e-05
 147    0.0001429910125071
 148    1.3960956433109e-05
 149    0.0013859694002223
 150    -0.00070219605922754
 151    -0.00010078021192987
 152    0.00056202766703443
 153    0.00030639863467401
 154    0.0048993272107698
 155    -0.00026982843110401
 156    0.00087548595160368
 157    -4.0346180981632e-05
 158    -0.00026471475803774
 159    0.0070471231312901
 160    0.00064673620312386
 161    -0.00085088422939558
 162    -0.00012644659024589
 163    -0.00067660388111584
 164      0.15585091196181
 165    0.0064417061047156
 166     0.007646079234635
 167    0.00035935109964771
 168    -0.0003834683093261
 169    -0.017264535775908
 170    0.0017752102767256
 171    0.0011678830713949
 172    0.0087336582884052
 173    -0.00037014241317688
 174    -0.00031789064776179
 175    -0.00054797155454297
 176    0.0001142168716088
 177    0.00025285383031594
 178      0.01395625021673
 179    0.0016924731586788
 180    0.00080806287859867
 181     0.001473700402209
 182    -0.00079385846599262
 183    -0.0084285184962792
 184    -0.0027042791565832
 185    -0.00011609047658111
 186    -0.00045318884810843
 187    2.9359252859585e-05
 188    0.0032226616168157
 189    -0.00057434088161243
 190    0.00036158395086832
 191    -0.00067553830389014
 192    0.00082037214269577
 193    -0.048603841326224
 194    -0.00040521615433816
 195    -0.00078280340801963
 196    0.0093683029312281
 197    -0.0004760360799317
 198     0.010098831503758
 199    -0.0045955052131615
 200    0.0014517068673901
 201    -0.0068816171676807
 202    0.00015509922342351
 203    -0.00033870748464228
 204    0.00018394803603915
 205    -0.0002049276190377
 206    0.00045096896255892
 207    0.0027585560416529
 208    0.00040801571832362
 209    -0.00039815468628458
 210    -5.2575686268263e-05
 211    -0.00018493282579329
 212    0.0057957037152282
 213    0.0012143861534171
 214    7.4369655948922e-05
 215    0.00045193498877697
 216    -5.639188980637e-06
 217    -0.010726314183198
 218    -0.0019150418400448
 219    0.00074308286972584
 220    -0.00082098179752714
 221    0.00036847710094205
 222     -0.16714328286103
 223    0.0011332683830883
 224    -0.0075868661298157
 225     0.004372652711693
 226    0.0031460228479924
 227    0.0061423532720127
 228    -0.0041577302478655
 229    -0.0027961239925059
 230    -0.0031952681176564
 231    0.00011811179786422
 232    0.00014787547776965
 233    -5.6774497794438e-05
 234    -0.00015551328621529
 235    -7.9799345628133e-05
 236    0.00047516878626467
 237    0.0016223166692671
 238    2.1249592170835e-05
 239    -0.00039803718003224
 240    -0.00030629802420349
 241    0.0027642314646982
 242    0.0013993545681995
 243    -8.1861067694793e-05
 244    -0.00010475498745535
 245    -0.00019394023436121
 246    -0.0031743773098446
 247    0.00012801371569059
 248    -0.00065963444692562
 249    0.00022783757001105
 250    0.00025299641556678
 251     0.033981975694993
 252    0.0027645079329984
 253    0.0049598944944407
 254    -0.0028574133347192
 255    -0.001238568420696
 256    -0.0027123312850387
 257    0.0013373852695875
 258    0.0017709679437727
 259    -8.3641385993947e-06
 260    0.00012805581130806
 261    -9.6836926424478e-06
 262    -7.814295850878e-05
 263    -6.4567864238879e-05
 264    -5.8090285036466e-05
 265    0.0038746190586582
 266    0.00057857887982647
 267    0.00010204578976744
 268    -0.00033408450446193
 269    -0.00046303911099624
 270    0.0024647509176591
 271    0.0007002155805331
 272    -0.00026168117676466
 273    0.00029569644239868
 274    0.00017181120692396
 275    -0.0010696354851913
 276    -0.00031478112014258
 277    0.00013384851664892
 278    -2.2917049284427e-05
 279    0.00022469608307522
 280      0.21972526370574
 281    -0.0039740734009295
 282    0.0080424292637795
 283    0.0062176797391056
 284    0.0018459609198842
 285    0.0014007686321062
 286    -0.005945568562761
 287    -0.0025263849530328
 288    -0.00051041262691365
 289    -8.3439129326668e-05
 290    8.8452528588521e-05
 291    5.7894975090066e-05
 292    0.00013202112208915
 293    0.00010393911080249
 294    0.00023064165016848
 295    -0.00066318504238674
 296    -2.273404970407e-05
 297    -0.00016242308718701
 298    -0.00054498583175331
 299    9.4569980364709e-05
 300    -0.00062770448785435
 301    -0.00025457231080599
 302    -0.0003638738355253
 303    0.00035795143703163
 304    -0.00030969699350016
 305    -0.00092058180229374
 306    -0.00030140994306814
 307    0.0003907339316684
 308    -7.7570003979968e-05
 309     -0.10502970147556
 310    0.00064435223580949
 311    -0.006832159000592
 312    -0.010726337134792
 313    0.0028790559706055
 314    0.0042941007582665
 315    0.0055992662841451
 316    -0.00082716016751918
 317    -0.003906233823602
 318    -9.6629873892837e-06
 319    -0.00034536510892318
 320    5.7657412927767e-05
 321    0.00047783833512451
 322    5.9814014222738e-05
 323    -0.005761411413047
 324    -0.00044132732577019
 325    0.00019418317754443
 326    0.00079610950225279
 327    0.0001545613309823
 328    -0.0040085497884489
 329    -0.0003330230743448
 330    -0.0001209273948359
 331    -0.0003013203867279
 332    -0.0007056768165251
 333    0.0084910531634663
 334    0.0022240709408434
 335    -0.00031711354739468
 336    -0.00018120796678768
 337    0.00021799830681139
 338     0.088464542659278
 339    0.0063569947976284
 340    0.0047398029350343
 341    0.0044228016399679
 342    -0.0076545868295115
 343    0.0087213338710101
 344    -0.002546575140269
 345    0.0028881862385792
 346    -0.0044738841468591
 347    -0.00035505832055073
 348    0.00036624425582792
 349    -7.3166540147964e-05
 350    8.1608807903823e-05
 351    -0.00036164535254811
 352    0.0040800899463545
 353    8.6131574206387e-05
 354    -0.00069163644326308
 355    -0.00034681069206301
 356    -0.00058321208888431
 357    -0.0039702189421953
 358    -0.0014034615469888
 359    -0.00023697258183312
 360    0.00028096830818951
 361    -9.7507506022159e-05
 362     0.012204994712884
 363    0.0016912488746033
 364    0.0013262818702135
 365    -0.00042319810838773
 366    0.00061352101109469
 Sym= A
 Ene=              43
 Spin= Alpha
 Occup=    1.00000
   1      0.34626590470569
   2      0.10595933038448
   3     0.016500124550252
   4    0.0031669502278781
   5    -0.0014884308308513
   6     0.083468660019482
   7      0.12572305340063
   8      0.15978597636416
   9    0.0025755419879496
  10    -0.025778713954014
  11     0.017332631271089
  12    -0.00026436026270778
  13    0.00092314987639143
  14    -0.0030528133753186
  15    0.00012808838579309
  16    0.00011533173260173
  17    -0.00043804598389306
  18    -0.0001690719707388
  19    9.8502590809446e-05
  20    -0.00010438910980607
  21    -0.00013809391397154
  22    0.0002115619710643
  23    -2.863902359144e-05
  24    -0.00020802884498764
  25    4.700581557268e-05
  26    -1.9177261319724e-05
  27    0.00010115760707206
  28    -4.8303401915027e-05
  29    -7.6453032907826e-06
  30    -0.00012366180291287
  31    -5.5487702492069e-05
  32      0.16317259974394
  33      0.22257619053641
  34     0.017049248772579
  35    0.00035912491594682
  36    -0.00015557057464593
  37     0.056773301696965
  38      0.55198635149987
  39     -0.45770963123555
  40    -0.0078948529855954
  41    -0.0015714757578253
  42     0.023561648543906
  43    -0.0018638417034923
  44    -0.0015273718763259
  45    0.0032999268851655
  46    0.00019680559797391
  47    -0.00029615727093405
  48    4.7192530989545e-05
  49    -0.00023944677181008
  50    -0.00030262678384994
  51    0.00030921055727452
  52    0.00015874636067372
  53    -0.00060344483982944
  54    0.00015612982740633
  55    0.00035843260563481
  56    4.873658208501e-05
  57    9.4534031624569e-05
  58    -6.4233740584546e-05
  59    -5.1957942786086e-05
  60    -8.603971561872e-06
  61    -0.00012203428147823
  62    -4.2386733194536e-06
  63     0.089315849309022
  64    -0.0024387015439192
  65    0.0033081917389044
  66    -5.7531064333782e-05
  67    0.00042031870803635
  68    6.0110199804594e-05
  69    -0.00034777290318312
  70    0.0018074285088625
  71    0.00081080657327119
  72    -9.1600748538583e-05
  73    1.5434894268043e-05
  74    -1.2125826091799e-05
  75    -6.343431977013e-05
  76    -6.7510412384498e-05
  77     -0.05147114950057
  78    -0.0019217732607318
  79    -0.0033530562513279
  80    0.0066238454475052
  81    -0.015937786708624
  82    -0.0012015433732058
  83    -0.0027052480015477
  84    0.0086302253646143
  85    0.0015719596773585
  86    -0.00031734229903725
  87    0.00015298398703946
  88    -2.1853617061695e-05
  89    -0.0007011154244435
  90    0.00026813978020898
  91    -0.010023579951849
  92    -0.0011079664085755
  93    0.00083063110710946
  94    0.00011854485289334
  95    -0.00078975899717712
  96    -0.0053843033054256
  97    -0.0010434344492573
  98    -4.7752394695194e-05
  99    0.00031334779533949
 100    0.00084409357123729
 101      0.01188407019377
 102    0.0027282622693412
 103    -0.00033791079076447
 104    -0.00081306380637226
 105    -4.3426148184108e-05
 106     0.059818051747421
 107     -0.00525918393629
 108    -0.0031609791458322
 109    -0.0040444527519056
 110    0.00020659437043951
 111    0.00092011743484532
 112    0.0023047340971057
 113    0.00092521223369181
 114    -0.001296297097742
 115    2.9622719599814e-05
 116    -4.4119184077696e-05
 117    -2.2730526595799e-05
 118    5.7023395136242e-05
 119    0.0002470495175337
 120    -0.0035307000603373
 121    -0.00055499840312385
 122    -0.0001467581748198
 123    0.00015267779856911
 124    -1.2019505099149e-05
 125    -0.00037096208748525
 126    0.00018500452948987
 127    0.00010626850215937
 128    4.7704227626686e-05
 129    3.2528763067637e-05
 130    0.0020031930818563
 131    0.00069612197072133
 132    -0.00012873973283774
 133    -0.00019896623631599
 134    2.2030537866933e-05
 135    -0.0095561201014627
 136    -0.0011515176446388
 137    0.0016876127372055
 138    0.0083839449338123
 139    -0.0044677658397404
 140     0.002226193343491
 141    -0.0039764697513067
 142    0.0033670114505619
 143    -0.0018449604319508
 144    -6.3923905017063e-06
 145    -0.00036716186784477
 146    -7.1640896164936e-05
 147    0.00019616717865081
 148    1.2190912607543e-05
 149    -0.0042515707418652
 150    -0.00056913467917418
 151    -0.00024338016308236
 152    -0.0004403109847765
 153    -0.00018575732961634
 154      0.00536151615103
 155    0.0012253921010659
 156    0.00025537005841089
 157    0.00012655368132521
 158    -0.00032300573284531
 159    -0.0060946398182589
 160    -0.0010157129564839
 161    0.00021729485707597
 162    0.00027246060366687
 163    0.00055193320350915
 164     0.036329410025669
 165    0.00049927127507252
 166    0.00058101304334746
 167    -0.0011358043164932
 168    -0.012387249911064
 169     0.012805700728972
 170    0.00073056564312815
 171    0.0063913207943285
 172    -0.0066925001646486
 173    -2.5090277424428e-06
 174    0.00045735933841859
 175    0.00041832013847829
 176    3.911131390355e-05
 177    -0.00060360372364842
 178    -0.013112932987532
 179    -0.0027761181230611
 180    -0.00067500127790737
 181    -0.00061754304504793
 182    0.00052007577302799
 183    0.0050175706730533
 184    0.00072973928451423
 185    -5.1669301347384e-05
 186    0.00081817581165046
 187    0.00019720299543079
 188    0.0092295087970371
 189    0.0019052311768006
 190    0.00083227156046795
 191    -0.00054683939694164
 192    -0.0003448844690568
 193     -0.28348009985527
 194     0.002836684142788
 195    -0.0084534694151268
 196    -0.010895303489422
 197    -0.0024975263885122
 198    -0.0086412237299965
 199    0.0070672936713223
 200    -0.00039359614298712
 201    0.0045711313193401
 202    -2.0994788938123e-05
 203    0.00027384780494822
 204    -0.00043969330662061
 205    0.00032875766139324
 206    -0.00044371626146105
 207    -0.0047449484869985
 208    0.00017269841510354
 209    0.0007785155391957
 210    0.00065947879702758
 211    -0.00080057847711197
 212     -0.01197303241947
 213    -0.0013236810277431
 214    -0.0010803033343047
 215    -0.0014808094114847
 216    -0.00031309762887457
 217     0.006037567821742
 218    0.0020529194562328
 219    0.00029096611049468
 220    0.00027437824454509
 221    0.00042835548045824
 222    -0.0076999479891127
 223     0.014654726642703
 224    0.0050777667441774
 225    0.0045101772649215
 226    -0.0019046502307402
 227    -0.00059994834553218
 228    -0.0014856551780662
 229    0.0020623796811259
 230    -0.00031071847078407
 231    8.1074748188001e-05
 232    -6.4924913167441e-05
 233    -2.3508762333377e-05
 234    0.00017832387583646
 235    -4.0800713924797e-05
 236    0.0031479082925111
 237    -0.00038044224001921
 238    -0.00029615880700273
 239    0.00061723114850721
 240    8.6075851240753e-05
 241    0.0050355014277984
 242    0.00023945046232469
 243    5.3697170316143e-05
 244    -0.00027606125190617
 245    0.00070348232689779
 246      0.00795514092341
 247     0.001095208390274
 248    0.00079131087773277
 249    -0.00038009430590239
 250    -0.00062885481124456
 251     0.057944614424548
 252    -0.0022757963851739
 253    -0.0025885795063162
 254    -0.0084847154296063
 255    0.0039143735780938
 256    0.0014624053163717
 257    0.0048893813152012
 258    -0.002940626767594
 259    0.00043093164159639
 260    -0.00013986149905834
 261    6.3127055802381e-05
 262    -5.16669594605e-05
 263    -1.8453109314198e-05
 264    -0.00046036408512262
 265    -0.0022380040966423
 266    -0.00035581647080629
 267    0.00024851141578501
 268    -7.31928873163e-05
 269    8.6749274733171e-05
 270    0.0077109349986344
 271    0.0014254694017543
 272    -0.00057669908348948
 273    0.00044649950795598
 274    -5.9571339211856e-05
 275    -0.0038136686274933
 276    -0.00065159792795721
 277    3.9230880247439e-05
 278    -0.00034179701182911
 279    -2.6586797140046e-05
 280    -0.080534726005466
 281    -0.0021184059777192
 282    -0.0027597678202288
 283    0.0067259531284787
 284    -0.010368488779158
 285    -0.0058093207566521
 286    -0.003651979413306
 287    0.0063356254869062
 288    0.0023675166378556
 289    0.00050692510113643
 290    -1.8220506773665e-05
 291    0.00023513119656769
 292    -0.00016370832987938
 293    0.00044605624689557
 294     0.006454994855992
 295    0.0016151391897602
 296    -0.00025588387439003
 297    -8.268452709716e-05
 298    -0.00027233257178329
 299    -0.0016780583933299
 300    0.00024374738975371
 301    -9.798384054499e-05
 302    0.00065564878544582
 303    -0.00014726805672802
 304    -0.011385887703932
 305    -0.0010993822912783
 306    0.00070579017001138
 307    -0.00091611378389501
 308    0.00040315948545734
 309    -0.0071639818427765
 310    0.0095849640980371
 311    0.0069918764511484
 312    -0.0051834098073944
 313    0.00072633147730473
 314    -0.0020038259519102
 315    0.0028691166342083
 316    -0.0015607189127079
 317    0.0033149268523675
 318    -7.0805479875659e-05
 319    -0.00024798011546681
 320    -7.8802015920966e-05
 321    3.7057828330601e-05
 322    -8.7052402996626e-06
 323    0.0018064649575517
 324    -0.00028553946391326
 325    0.00020361517851133
 326    -0.0003069946322478
 327    -4.6213037238925e-05
 328    -0.00075174639190917
 329    -0.00051896084138998
 330    0.00020201131964919
 331    -2.0120623275181e-05
 332    5.0457672454954e-05
 333    0.0061769157894811
 334    0.0010736713532389
 335    -0.00062958398872905
 336    -5.8456729332968e-05
 337    0.00042079936955186
 338     -0.26693035371998
 339    0.0048381997755623
 340    -0.0054414544336933
 341    0.0061999923773285
 342    0.0069695273028139
 343    0.00091927707999937
 344    -0.003542396309998
 345    -0.0028725817652014
 346    -0.00088733006655005
 347    0.00017232332539415
 348    -4.5138415643204e-05
 349    -0.00024912528063584
 350    0.0002428600790349
 351    -0.00017701237121887
 352    -0.0098871468495777
 353    -0.00075557739975927
 354    0.0010699374889159
 355    0.0010813856076622
 356    0.00050815126456582
 357    0.0012537418496656
 358    0.00093042544072043
 359    -0.00035735492786188
 360    -0.00048465124306228
 361    0.00034594519846015
 362    -0.00050235025195839
 363    0.00077948047025893
 364    -0.00081981459011958
 365    -0.00014895941888074
 366    -0.00045395708731503
 Sym= A
 Ene=              44
 Spin= Alpha
 Occup=    1.00000
   1      -0.1304707025612
   2     -0.19879157816224
   3    -0.008344789082418
   4    -0.0027126200009862
   5    0.0014754167154976
   6    -0.083282896697433
   7     -0.13286859754281
   8     0.032537715591371
   9     0.012276676340769
  10    0.0052853083133336
  11     0.052103906406482
  12    -0.0027160854076945
  13    0.0049060329750106
  14    -0.0028554896233442
  15    -0.00030149638344061
  16    -0.0002161243738942
  17    0.00090737682251935
  18    2.4047246028943e-05
  19    -0.00035950962139435
  20    -0.00031975685698669
  21    0.00017044372351149
  22    0.00031099514646232
  23    -7.719503364601e-05
  24    6.077604782883e-05
  25    -8.6902223270493e-05
  26    0.0001634488699916
  27    0.00023651063841367
  28    6.6344901633909e-05
  29    4.567315038222e-05
  30    -0.00018397876676504
  31    -3.4326763635496e-05
  32     -0.31772865959241
  33      0.62426755084616
  34     0.026679877188393
  35    -0.0015019523397915
  36    -0.00058778720376999
  37     0.081627597582535
  38    -0.057399670641596
  39      0.17921016223252
  40    -0.011542920742219
  41     0.009603355757542
  42    -0.035715835803395
  43    -0.00081815714618465
  44    0.0041312371323261
  45    0.0038560583884177
  46    0.0005138646953383
  47    -4.157853663728e-05
  48    -0.0013269646503229
  49    -0.00045965248838055
  50    -4.9029000496452e-05
  51    0.00054856638175878
  52    -0.0002269936768685
  53    -0.00089626614060101
  54    -0.00033020182904269
  55    -4.089431376086e-05
  56    -8.1060614234233e-05
  57    4.1155977571081e-05
  58    0.00015391375705111
  59    1.5341966542568e-05
  60    -0.00021621965525124
  61    6.1483255657677e-05
  62    -3.0517267250465e-05
  63     0.014758109670968
  64    -0.00069748326943696
  65    0.0022049725540004
  66    0.0016380094125294
  67    -0.0025491794891461
  68    -0.0014717645024006
  69    0.00053657759626162
  70    -0.0014418351938135
  71    0.00049591461994757
  72    -0.00010699392870688
  73    4.6170044071671e-05
  74    1.7777387147585e-05
  75    -4.5471958033048e-06
  76    -2.8178986646332e-05
  77       0.0534137049675
  78    -0.0070010733923636
  79    3.8482236026817e-05
  80     0.012402214107644
  81    -0.018513361739943
  82    -0.011109606241762
  83    -0.0060143626160791
  84    0.0095421145213248
  85    0.0073249488897625
  86    -0.00011290984005123
  87    0.00058612000502278
  88    -0.00012900625982503
  89    -0.00093528512576252
  90    0.00044663960372417
  91     -0.01874122122834
  92    -0.0038870564396976
  93    0.0014948340392021
  94    2.1195489516663e-05
  95    -0.001016587447861
  96    0.00028400660152126
  97    -0.0004782580471347
  98    -0.00045790552608051
  99    0.00067268296932883
 100    0.00036300606345244
 101     0.013647992682017
 102    0.0024779792492811
 103    -0.00047123054873478
 104    -0.0011055597265998
 105    0.00034240024947911
 106     0.052636206846582
 107    0.0062095026983706
 108    0.0006977212546857
 109    0.0027721147358759
 110     0.005018804754863
 111     0.011091564465019
 112    -0.0010654027843876
 113    -0.0026453666293409
 114    -0.0069312960609094
 115    0.00047887796957153
 116    0.00010126200905828
 117    0.00024653512182313
 118    -7.9699709596394e-05
 119    5.2612847049014e-06
 120    0.00098645454250835
 121    -1.8625809613234e-05
 122    0.00019292193295057
 123    -0.00044973826429282
 124    -0.00042717058993683
 125     0.012689576125613
 126    0.0015415106069521
 127    7.6812183896123e-05
 128    0.00062620784672584
 129    0.0012549934398412
 130    -0.00084009273669975
 131    -0.00085604249311657
 132    -0.00021759556293657
 133    -0.00017423494351506
 134    -0.00037562978880585
 135     0.054544512134662
 136    -0.017406427045121
 137    -0.00053617205020633
 138    0.0023010197516905
 139    0.0079527116853189
 140     0.013447279201619
 141    -0.0009691339361923
 142    -0.0040602370424923
 143    -0.0080565302461129
 144    -0.00034643959040763
 145    -0.00023526839834203
 146    -4.2225339265708e-05
 147    -0.00062378432559253
 148    -0.00012702173630036
 149    0.0041345324146004
 150    0.0011882964390498
 151    -0.00014658350818824
 152    0.00010461049263646
 153    -0.00041530180148486
 154    -0.0083467720279582
 155    -0.0010313141207628
 156    -0.0011074483503086
 157    -0.00014717432721383
 158    -1.346345468511e-05
 159    -0.015052314279422
 160    -0.0020439749488319
 161     0.001278978046746
 162    7.7883999996482e-05
 163    0.00092154465828339
 164      0.22146161114755
 165    -0.011048069729018
 166    0.0027385635349344
 167     0.010850064488549
 168    -0.026886109691855
 169    -0.015706654264449
 170    -0.0061925616683589
 171     0.013923672083112
 172    0.0095098047256524
 173    -0.0010324029851421
 174    8.6500062746023e-05
 175    -0.00084235049598331
 176    0.00037858129010265
 177    -0.00088911187671602
 178    -0.0022979545673244
 179    -0.00084574954936607
 180    -0.00035822724978591
 181    0.00096960198228393
 182    0.00048472531418249
 183     -0.02198494092835
 184    -0.0045560772613997
 185    -0.00049640036327276
 186    -0.00019959017867794
 187    -0.0016608912796149
 188     0.021267938494152
 189    0.0031936147300376
 190    0.0014945624385403
 191    -0.0013871117391804
 192    0.00081555048643951
 193      0.22539445108294
 194    -0.023899987079769
 195    0.00046525418481281
 196    0.0070670482292347
 197    -0.0042595935781793
 198    0.0042001424385052
 199    -0.0039239950467466
 200    0.0013162822635087
 201    -0.0012528643664546
 202    0.00012797257525756
 203    -0.00023702542476493
 204    0.00019177977296578
 205    -0.00014942171464038
 206    0.00017475598764679
 207    -0.0017949733184558
 208    -5.4752242340151e-05
 209    -0.00030476358536111
 210    8.1259417599137e-05
 211    -0.00017491385954455
 212    -0.0027810612434554
 213    -0.0010202067362442
 214    -0.00017827384671709
 215    3.2532292953097e-05
 216    -0.00031529808482817
 217    -0.012052082809173
 218    -0.0024488505921224
 219    0.00080383598307055
 220    -0.00049444377352429
 221    0.00036599388931066
 222     -0.11784752731384
 223     0.010437466891868
 224    0.0034046555148259
 225    0.0020864786465856
 226    0.0060472688033868
 227    -0.018117759827396
 228    0.0014206897892718
 229    -0.0023726804225795
 230    0.0099080375590872
 231    -0.00061334518623678
 232    -0.0006700864207625
 233    0.0003001831216226
 234    -2.1770215958575e-05
 235    6.2009212032008e-05
 236    0.0065289444081742
 237     0.002260884131502
 238    -6.1907416883411e-05
 239    0.00038117637062771
 240    0.00053075977595736
 241    -0.013448434690137
 242    -0.0026206823532905
 243    -0.00074275226419441
 244    0.00032282189183789
 245    -0.0010177455908654
 246     0.010893808784825
 247    0.0021869125674207
 248    0.00090718928690044
 249    -0.00051400329366388
 250    -0.00013271348218474
 251      0.12556555340609
 252    -0.0016311895150605
 253     0.001988742914337
 254     -0.01933429881741
 255    -0.0035875195738633
 256    -0.0067380520038731
 257     0.010803710115372
 258    0.0013803085500391
 259    0.0037516552887793
 260    0.00036963653622285
 261    0.00024102896174589
 262    0.00012400295291268
 263    -0.000132365463432
 264    -0.0009397925286071
 265    0.0081079667038722
 266    0.0016891670773466
 267    0.00057325214628222
 268    -0.00051557329544071
 269    -0.0010267930943045
 270     0.011735651375705
 271    0.0013600867698814
 272    -0.00069656620134439
 273    0.0012469713251964
 274    0.00033246613938088
 275    -0.013418695012759
 276    -0.0028088436856413
 277    -0.00046713419283059
 278    -0.00063120749053411
 279    0.00037847966318518
 280     -0.25878500437425
 281     0.013508703245945
 282    -0.0048934239237595
 283    -0.00078425689354726
 284    -0.0060959833817623
 285    -0.0065959745179255
 286    0.00050425195315137
 287    0.0033518378953123
 288    0.0031357810212749
 289    0.00031682643804901
 290    -1.3437655303168e-05
 291    0.00017358537414824
 292    -0.00016515430982613
 293    0.00011473897273684
 294    0.0076920223516804
 295    0.0020610560288618
 296    -9.4853194527909e-05
 297    -8.4754296587817e-05
 298    -0.00027220660074375
 299    0.00072222954063137
 300    0.0007532148296405
 301    0.00011394482978936
 302    0.00048020575929506
 303    -4.0999471400342e-05
 304    -0.0023942367283092
 305    0.0018601090574712
 306    0.00036681941090108
 307    -0.00042309640981958
 308    0.00020049958728753
 309      0.12353251159346
 310       0.0186445478172
 311     0.016067657823198
 312    -0.00086521127617321
 313    -0.0025539270363532
 314    -0.0071290877054344
 315    0.00027639318212648
 316    -0.0014516876572809
 317    0.0072602764756484
 318    -7.5975447347303e-05
 319    -0.00014802254620966
 320    -0.00018033598902016
 321    -0.00027350699457007
 322    -5.4455497567705e-05
 323     0.010633316963043
 324    0.0004629498713384
 325    0.00037952492797029
 326    -0.0016786851243855
 327    -0.00034957399780866
 328    0.0024545481590822
 329    -0.0014951861335829
 330    0.00066989104961287
 331    0.00049057593298907
 332    0.00066593203719881
 333    0.0057737726265558
 334    -0.0005861610480422
 335    -0.0011489385976916
 336    0.00027201063903516
 337    0.00060512104044481
 338     -0.47729788964553
 339     0.011783226016883
 340    -0.0078920782960064
 341    -0.0029923889703252
 342     0.010883083441396
 343    -0.004550141479527
 344    0.0012947740877423
 345    -0.0063034663331178
 346    0.0024375615925058
 347    0.0003879936450002
 348    -0.00025919940520171
 349    -0.00022769136337981
 350    9.5584584364587e-05
 351    0.00031271726971795
 352    -0.007081334670247
 353    0.00041985989039931
 354    0.0014337765037268
 355    0.0010419617008384
 356    0.00055793627171551
 357    0.0022932379820853
 358    0.0017837372903745
 359    -0.0001363881080217
 360    -0.00081788612925246
 361    0.00086279110603697
 362    -0.010372987631573
 363    -0.00052168914813591
 364    -0.0016980298711501
 365    0.00056146349378774
 366    -0.0011782770238394
 Sym= A
 Ene=              45
 Spin= Alpha
 Occup=    1.00000
   1     0.078271607606076
   2     0.048357110376048
   3    -0.022485951048579
   4    -0.0084868811413606
   5    0.0037437730331143
   6      0.19964367689029
   7      0.10799271601224
   8     0.028202587790682
   9    0.0088568705181675
  10     0.018762389060476
  11     0.032915796152046
  12    -0.0045304211652913
  13    -0.0019559247730299
  14    -0.001212489703758
  15    -0.0006907878984398
  16    6.8567804312725e-05
  17    0.0011789597647988
  18    0.00059871766202126
  19    -7.2155086982029e-05
  20    -0.00024651024243106
  21    -0.00013640928009651
  22    0.00071058324503696
  23    0.00010801227908826
  24    -0.00019981329845846
  25    3.4504658693381e-05
  26    0.00013656530499548
  27    -9.3432047748031e-05
  28    -0.00011133407953964
  29    2.4399711866892e-05
  30    -0.00022738156002951
  31    5.2458082968357e-05
  32      0.21652027147423
  33     -0.50205096481215
  34    -0.0070170372704998
  35    0.0064668666957273
  36    -0.0013114807566568
  37     -0.30097756376283
  38     0.066223646645992
  39    -0.0046074363217117
  40     0.039530176892257
  41     0.035362428368488
  42    -0.067839762348958
  43    -0.0031014999960683
  44    -0.0037437469505185
  45    0.0062257584520118
  46    0.00036073169528046
  47    2.1090257898961e-05
  48    -0.00084070742261123
  49    -0.00048635588782273
  50    1.5399585851451e-05
  51    0.00045376167761689
  52    0.00017062459088691
  53    -0.0012068713305945
  54    -0.00067859311618803
  55    0.00020768041509727
  56    -0.00010853189539544
  57    -4.5338986269823e-05
  58    -8.4789754614559e-05
  59    -0.00022421890152468
  60    -0.00015480580243695
  61    0.00014407528536166
  62    -1.3137282589111e-05
  63    -0.0012586246452748
  64    -0.0036691815554127
  65    -0.0029668554832735
  66    -0.00084767433001047
  67    -0.00014863947257927
  68    0.00078198919941942
  69    -0.00024707608904045
  70    0.00083933185176296
  71    0.00031475676636836
  72    -0.00012847791239101
  73    5.8906087553676e-05
  74    2.8897581599798e-05
  75    -1.0515597283771e-06
  76    -3.0889795330397e-05
  77       0.2918092657694
  78    -0.010076175647406
  79    0.0097979721239935
  80    0.0049758294489129
  81    -0.0065017177939491
  82    -0.00010002656240585
  83    -0.0048034871122093
  84     0.003046059545263
  85    -0.00054291279212925
  86    -0.00026039629365689
  87    0.00020400343318959
  88    6.1638109694178e-05
  89    -0.00022631834750319
  90    0.00031558200827731
  91    -0.0035777269171777
  92    -0.0021508454078034
  93    -0.0001107558089039
  94    0.00033281922345977
  95    0.00016804455873502
  96    -0.0012904336549611
  97    -0.0011887933861028
  98    -0.00010421332053544
  99    0.00039969451883217
 100    -0.00045791975760834
 101    0.0062808993606616
 102    0.00071420533750247
 103    -7.2138690914411e-05
 104    -0.0011211237892153
 105    0.00013323554325144
 106     0.098611968510202
 107    -0.010920536017086
 108    -0.003585087799516
 109    -0.0090252374854554
 110    0.0050942153660606
 111     0.012861621214023
 112    0.0059436337117901
 113    -0.0016411340290611
 114    -0.0079608816495075
 115    0.00047298064501858
 116    2.3299496662149e-05
 117    0.00016147296212343
 118    2.6669148049185e-05
 119    0.0005472396273018
 120    -0.011059836051578
 121    -0.00065346574777898
 122    -0.00065436285992853
 123    0.00051926686333349
 124    -0.0004172754588352
 125    0.0084293677544989
 126    0.0013772334964562
 127    0.00034194553775028
 128    0.00032353290722673
 129    0.0007002701929994
 130    0.0025572832449759
 131    0.00033679390563786
 132    -5.7496674386783e-05
 133    -0.00045167553514244
 134    -0.00037211680911895
 135     0.013387873633087
 136    0.00098351946537815
 137    0.0036324664277092
 138    -0.0060584510039005
 139     0.015930500968556
 140      0.01192048108238
 141    0.0039851574055352
 142    -0.0076944984652072
 143    -0.0071764564302201
 144    -0.00041532232903912
 145    8.4762314778892e-05
 146    5.4821020289051e-05
 147    -0.00090063459710753
 148    -0.00013081156348145
 149     0.016056700303497
 150    0.0024583584461366
 151    -0.00015369910376562
 152     0.001460139015832
 153    -1.2585309521317e-05
 154    -0.0092224666812937
 155    -0.0023501149849944
 156    -0.00082438715948166
 157    -0.00059891656873785
 158    0.0001581469196597
 159    -0.0059298509257217
 160    -0.0013589822907985
 161    0.00066619489006688
 162    -0.00045362673653461
 163    0.00010609473312703
 164      0.16216003938861
 165    -0.021273382397413
 166    -0.0050391955772519
 167    0.0072222505351586
 168    -0.023020205850805
 169    -0.0044006769789055
 170    -0.0065271163279019
 171     0.012039780561038
 172    0.0018949151240492
 173    -0.00071864276533996
 174    0.00022373381796342
 175    -0.00034855940970546
 176    0.0002649167820682
 177    -0.000962229890422
 178    -0.011520615705864
 179    -0.0020601222944202
 180    -0.00077518272370977
 181    -0.00010358569872902
 182    0.00096829785362476
 183     -0.01640464264934
 184    -0.0026777145263764
 185    -0.00018021133059927
 186    -0.00021133074216993
 187    -0.0015700045280834
 188     0.013747128565608
 189     0.001935771919877
 190    0.00084935341236731
 191    -0.00054583799043024
 192    0.00039254724921504
 193      0.37345556555066
 194     -0.02991810059756
 195    0.0023898608915984
 196     0.016327367606786
 197    -0.0034160606821346
 198    0.0063270157828059
 199    -0.0085955508410876
 200    0.0016559751593341
 201    -0.0029445644096218
 202    9.4197370005874e-05
 203    -0.00027234003301354
 204    0.00044698713955534
 205    -0.00037860180357501
 206    0.00050637401261017
 207    -0.0035046221050346
 208    -0.00054515954286846
 209    -0.00066925205608275
 210    2.4837196959822e-05
 211    -0.00020736180835854
 212    0.0034387391115465
 213    -0.00013506501355517
 214    0.0001368724651468
 215    0.00078748472388274
 216    -6.8889586110921e-05
 217     -0.01799066016992
 218    -0.0038438684169638
 219    0.00078828903026495
 220    -0.00081383979844355
 221    0.00056888280398504
 222     -0.31094538222843
 223    0.00017047494158591
 224    -0.011932766196253
 225    0.00010875449538029
 226     0.017333783314452
 227    -0.026995640530724
 228    -0.0020566827827261
 229    -0.0095165166481696
 230     0.012847881338919
 231    -0.00098928351627793
 232    -0.0011135596527325
 233    0.0003759628783793
 234    -0.00048678495712289
 235    6.0041801528289e-05
 236    0.0097398435708382
 237    0.0035380263773711
 238    0.00019069778506684
 239    -0.00025181106073769
 240    0.0010889373191885
 241    -0.029608672703834
 242    -0.004055058104433
 243    -0.0010934283005248
 244     0.001003796885918
 245    -0.0031943873097813
 246    0.0057842768661017
 247    0.0021260553198016
 248    0.00013635998351778
 249    -0.00059025786813216
 250    0.0011585247923708
 251      0.25524559573227
 252    -0.0076180626897426
 253    -0.0021135928979147
 254    -0.0069550430779565
 255    0.0031634409456901
 256    0.00073802332467348
 257    0.0041841979215865
 258    -0.0036126558190324
 259    0.0020343008941797
 260    -9.2789870318996e-05
 261    7.522516884618e-05
 262    -8.5042920277256e-05
 263    -1.8800534572897e-05
 264    -0.00033539963093971
 265    -0.00034179509190099
 266    -0.00086926096606444
 267    0.00021439313530361
 268    -0.00034507362613833
 269    -0.00046026142479148
 270    0.0072667897001271
 271    -0.00024770449383312
 272    -0.00085191893225479
 273    0.00084042783085429
 274    6.8893384258595e-05
 275    -0.0019858840596246
 276    -0.00070229853763386
 277    0.00045844479304064
 278    9.6470763664303e-05
 279    -9.3494357897341e-05
 280     0.059803048433307
 281    -0.0053867852089495
 282    -0.00039332668686722
 283    -0.0041758266288095
 284     0.012402485114317
 285    0.0056017115340828
 286    0.0026371637949807
 287    -0.0058210062456888
 288    -0.0045818424860262
 289    -0.00045983540297835
 290    3.4787766558041e-05
 291    -0.00026686024570868
 292     0.000131635262325
 293    -0.00042877790615814
 294    -0.0091315010444624
 295    -0.0014419035406064
 296    0.00020523469427144
 297    -2.637448293349e-05
 298    0.00080039189879856
 299    -0.0038309896727458
 300    -0.0012714119868214
 301    0.00042013206544115
 302    -0.00011031173033887
 303    -0.00040026157000446
 304    0.0092493045450837
 305    0.0020708726989549
 306    -0.00064037042710714
 307    0.00047565510595702
 308    -0.00017781042009419
 309      0.25635126296865
 310     0.014176230753282
 311     0.017411361938261
 312     0.019255237978121
 313     0.013178238282116
 314    0.0095415694419495
 315    -0.010380888160723
 316    -0.0095344760529609
 317    -0.0026202158142934
 318    0.00076225151664994
 319    0.0010701889719687
 320    -8.4921637422391e-05
 321    0.00018354782238697
 322    0.00013037437031263
 323    -0.001268861523628
 324    -0.0020464034521324
 325    -0.00051503526337238
 326    -0.00099182150449104
 327    -0.00066396378098147
 328     0.026784369117788
 329    0.0025698179312597
 330    0.0021841469009479
 331    0.0006473365509087
 332     0.002478624583192
 333    -0.0030520920240933
 334    -0.0030825760950951
 335    -0.0011163303693697
 336    -0.0002897752235118
 337    -0.00024385592808854
 338     -0.28458012210632
 339    0.00013942284326123
 340    -0.0088035964150985
 341    -0.012672918404479
 342    0.0017403733925639
 343    -0.0056985540523301
 344    0.0061895588327863
 345    0.00089371251573629
 346    0.0031448296058532
 347    9.3881790837331e-05
 348    -7.9177355341862e-05
 349    0.00011960507219766
 350    -0.00012805600541718
 351    0.00060229772491126
 352    0.0023865570005403
 353    0.0013413627993656
 354    0.0008687273488533
 355    9.763821556383e-05
 356    0.00029699460801019
 357    -0.0032526932346536
 358    0.00028146164350536
 359    6.8820140230835e-05
 360    -0.00051679117923363
 361    0.0012377960457585
 362    -0.015047989324483
 363    -0.0020041007009982
 364    -0.0016500038429071
 365    0.00098555107634255
 366    -0.0011662951032285
 Sym= A
 Ene=              46
 Spin= Alpha
 Occup=    1.00000
   1      0.28058865984058
   2     -0.29281857812599
   3     0.057454510597272
   4    0.0046077364156737
   5    -0.001455680899356
   6      0.25735593542355
   7      0.19563544384368
   8      0.27139022620647
   9     0.023818248334804
  10    -0.040174064152272
  11     0.055566413727837
  12    -0.0062911643266649
  13    0.0038158603780797
  14    -0.008952661628553
  15    -0.0001325601618171
  16    0.00033732746285263
  17    -0.00042188837946051
  18    0.0002100415419247
  19    0.00037700053517643
  20    -0.00014901300619499
  21    -0.0006217497811604
  22    0.0011140538703228
  23    -0.00059758126387395
  24    -0.00087133535854613
  25    5.0112840345075e-05
  26    0.0003683384493351
  27    0.00038743997252727
  28    0.00021828872523162
  29    -0.00011502395886427
  30    -6.5840517780315e-05
  31    -0.00038415756604241
  32     0.029475293045479
  33      0.27250524907167
  34     0.025565388377279
  35    -0.0065997290655895
  36    0.00029399643352539
  37     -0.61924871442739
  38     0.012595711306309
  39      0.25248570488773
  40    -0.021923237754668
  41     0.024025643297026
  42     0.050070249573017
  43    0.0088571947422454
  44    -0.0027251744414523
  45    -0.0045238349973881
  46    0.00017978051841482
  47    -0.00035549676905646
  48    0.00018527250704361
  49    -0.00029064162477128
  50    -0.00038902985397465
  51    0.00036422046049189
  52    0.00056973362857062
  53    -0.00093752958948028
  54    0.00038007879262271
  55    0.0010786384940698
  56    0.00018567502630724
  57    2.4271441844606e-06
  58    -0.00010232700998003
  59    0.00032810649062933
  60    0.00040679683748236
  61    -0.00012179747106051
  62    2.4522932268609e-05
  63     -0.12855202776619
  64    0.0020205104279174
  65    -0.007568759459944
  66    -0.00096247174957284
  67    0.0017554790438511
  68    -2.1542806754672e-05
  69    -0.0021451671956827
  70    0.0030728754063923
  71    0.0029771994578151
  72    -4.1285924234639e-05
  73    -1.8828070315492e-05
  74    -6.3154095631693e-05
  75    0.00013335166581521
  76    -3.4579321017925e-05
  77    -0.046574671548474
  78    -0.00032606453876634
  79    0.0003548402522582
  80    -0.0015334100337959
  81    0.0025052774286647
  82    -0.0036117144042546
  83    -4.2482083515623e-05
  84    -0.0023803792040483
  85     0.003197426947705
  86    0.00020245512523379
  87    0.00013355659199815
  88    -8.4344149954907e-05
  89    9.191842242891e-05
  90    3.732089688962e-05
  91    -0.00067863523171997
  92    0.00024875737973109
  93    0.00017005687770649
  94    4.5953792182732e-05
  95    -4.9204665415568e-05
  96    0.0024284528360767
  97    0.0010935914987009
  98    -2.6178846710931e-05
  99    -4.8265067087162e-05
 100    -4.523640105679e-05
 101    -0.0027425322884006
 102    -0.00026292694157966
 103    0.00018172952966065
 104    0.00035448968305847
 105    3.1857462742206e-05
 106     -0.17660305411862
 107    0.0093632602075974
 108    -0.0047342162344043
 109     0.011782243966672
 110    -0.0048913008947713
 111    -0.0062947354222269
 112    -0.0047751388699326
 113    0.0034993620681667
 114    0.0027092779287527
 115    -0.00041056237644968
 116    9.2247206233491e-05
 117    3.4868131219735e-05
 118    2.0328383582665e-06
 119    -0.00064404543814228
 120     0.011182594857114
 121    0.0017841291687061
 122    0.00029780942504063
 123    -0.00052059507316199
 124    3.1174063999298e-05
 125    -0.0047652560646316
 126    -0.00049017474372093
 127    -0.00058786720780463
 128    -0.00030327920237627
 129    -0.0005996253121381
 130    -0.0066553797621459
 131    -0.001190719265206
 132    0.00060844853787525
 133    0.0008260100648142
 134    0.00013885292130529
 135    -0.020890479618979
 136    0.00098538323912117
 137    0.0017436536513477
 138    -0.019615881367896
 139      0.01259887625398
 140    0.0024683805532624
 141     0.011448736356279
 142    -0.0061599097874303
 143    -0.0020207902384564
 144    -6.4298431728478e-05
 145    0.00090943516619929
 146    2.3347387749877e-05
 147    -0.00078842753453766
 148    -2.460659064354e-05
 149     0.012150789975258
 150    0.0022120423056415
 151    0.0002893516639679
 152    0.0010946597836027
 153    0.00034789720579011
 154    -0.016330903210679
 155    -0.0026723295545905
 156    -0.0010798413123013
 157    -0.00052519864787129
 158    0.00071628781841852
 159    0.0075032682352751
 160     0.002038345028698
 161    3.3297079291707e-05
 162    -0.00060826388009446
 163    -0.00074995395366472
 164     -0.12470257723435
 165     0.010688789306021
 166    -0.0031343463846994
 167    0.0057515668574735
 168    0.0062351714425852
 169    -0.022981032322112
 170    -0.0041394025267828
 171    -0.0046825876926639
 172     0.013911741321931
 173    -0.00032267970511564
 174    -0.00061762697051732
 175    -0.00097816617969771
 176    -1.268524575114e-06
 177    0.00045696481705955
 178     0.018679365126019
 179     0.003495663018017
 180    0.00073524438737081
 181    0.0011875042233927
 182    -0.00052433033931056
 183    -0.012339927441782
 184    -0.0023545325670631
 185    -0.00022220430411483
 186    -0.00094742428608299
 187    -0.00083072115374476
 188    -0.0013561405655985
 189    -0.00027987827835959
 190    -0.0004660470758281
 191    3.1570221044922e-05
 192    0.00060582269161879
 193    0.0053763586080505
 194     0.014934151303233
 195     0.004708818060545
 196     0.006811844171112
 197    -0.014904387851502
 198     0.030392949417419
 199    -0.0030326606695899
 200    0.0087285549038451
 201    -0.015084850499994
 202    0.00096499077713607
 203    -0.0010952297334611
 204    1.779667662154e-05
 205    -0.00012418025694766
 206    0.00076953425526697
 207      0.02799274442139
 208    0.0045030149271764
 209    -0.001972301400459
 210    -0.00064985819015376
 211    0.0021455078447881
 212    0.0054775625753097
 213    0.00043766699582677
 214    0.00032725290773363
 215    0.0012835288800922
 216    -0.00093755206971739
 217    -0.017610091464747
 218    -0.0039299974284911
 219    0.0013285086815121
 220    -0.00048756484542119
 221    -7.8097308906146e-05
 222     0.040904850496458
 223    -0.0077701595442054
 224    0.0027568717532841
 225    -0.0045322224766185
 226    0.0015699816647791
 227    0.0025886184971901
 228    0.0032499595876319
 229    0.00061021214431488
 230    0.00056242288314457
 231    1.6952043659198e-05
 232    0.00016176870845627
 233    5.5440181824698e-05
 234    -0.00010696824637011
 235    5.8979110563054e-05
 236    -0.0001800824474629
 237    0.0010084403138451
 238    0.00023949297217885
 239    -4.1692715159271e-05
 240    -0.0003071108804487
 241    -0.00088118054727852
 242    0.00011712204200271
 243    0.0001397392225261
 244    -0.0002034234171315
 245    -0.00022981275958387
 246    -0.0066475975961003
 247    -0.0010305765519151
 248    -0.00053416431054253
 249    0.00016624339897478
 250    0.00042505395884446
 251    -0.013659996815102
 252    0.0038206060159157
 253    0.0067174358074919
 254    0.0021030663392633
 255    -0.0064470652025041
 256    0.0013408949972113
 257    -0.0026657833631464
 258    0.0061342975742375
 259    -0.0021301254272345
 260    0.00023012876199751
 261    3.1775889360807e-05
 262    4.2610956146177e-05
 263    -6.1349146991274e-05
 264    0.0001899623685032
 265    0.0021377058942075
 266    0.00059276620368786
 267    0.00015768089734607
 268    6.9905494469426e-05
 269    -0.00024723717255694
 270    -0.0031684586729932
 271    -0.0011729175019542
 272    0.00021199106730648
 273    3.0370261398841e-05
 274    0.00012462416380654
 275    -0.00064125104867461
 276    -0.00041560845111706
 277    -0.00010016808538782
 278    -1.029666387677e-05
 279    -0.00014029314556329
 280     -0.11418702621837
 281    0.0043593260875611
 282    -0.0044207465267191
 283    -0.0052301708085351
 284     0.010544926123207
 285    0.0015451218348572
 286    0.0030684083779476
 287    -0.0046268372783045
 288    0.0010388826180991
 289    -0.00027568092866716
 290    -4.1215199388752e-06
 291    -7.6532672260569e-05
 292    5.5221652543266e-05
 293    -0.00050578237045746
 294    -0.0057211104531081
 295    -0.00066589806308819
 296    8.209456387447e-05
 297    5.9270585561429e-05
 298    0.0008477293858972
 299    -0.0031234312686736
 300    -9.6352046074464e-06
 301    0.00045946418670834
 302    -8.9401596285586e-05
 303    -0.00055779459519098
 304    0.0093917574531467
 305    0.0024549365501044
 306    -0.00038911690621783
 307    0.00035971264299832
 308    -0.00031557893673717
 309    -0.0088705448701829
 310    -0.012633365744824
 311    -0.0062658132881755
 312    -0.00050838922075361
 313    -0.010486753467046
 314    -0.0071243801866555
 315    -0.0013697280845073
 316    0.0075694024794157
 317    0.0030931615465053
 318    -0.00034451612745527
 319    -0.00016282425689859
 320    0.00010705797386554
 321    -0.00054232033922831
 322    -0.00013973245947704
 323    0.0050527399555657
 324    0.0017508389107745
 325    0.00027906225567575
 326    -8.8133739425734e-05
 327    0.00027215947363425
 328    -0.010976167975338
 329    -0.0012422682379151
 330    -0.0008531167151715
 331    -0.00014379342944803
 332    -0.00092524194218724
 333    -0.0058851844284504
 334    -0.0002707251874848
 335    0.00078435179460045
 336    0.00031668524929185
 337    -0.00019551612590939
 338      0.21774709495774
 339    -0.014088310872185
 340     0.007199869574988
 341    -0.0049053283662599
 342    0.00081409675000962
 343    -0.002882674125093
 344    0.0030268110184176
 345    -0.0030031895323118
 346    6.0428808941428e-05
 347    4.0727656493828e-05
 348    -0.00020197421533422
 349    0.00026207559082908
 350    -0.00022785042513714
 351    -1.131232088209e-05
 352     0.001532675707698
 353    0.00039817301328998
 354    -0.00038161036775545
 355    -0.0003974765798229
 356    1.249519227737e-05
 357    -0.00067863089710918
 358    0.00013173619733702
 359    0.00036601060786859
 360    0.00019892232993465
 361    -9.0967744267793e-05
 362    -0.0058893064258893
 363    -0.00090848395286689
 364    -3.468686935731e-05
 365    0.00036414909998003
 366    -5.060163119755e-06
 Sym= A
 Ene=              47
 Spin= Alpha
 Occup=    1.00000
   1      0.04287872831033
   2      0.23224765781733
   3     0.016544503795616
   4    -0.014002451710568
   5    0.0019528699016991
   6      0.22301042628046
   7     -0.10448319200394
   8     0.086543490080572
   9    -0.0095559017516206
  10     0.034156847962292
  11     -0.08370420153547
  12    0.0010291776857748
  13    -0.0079319137272288
  14    0.0094063974873867
  15    0.0010566831716378
  16    -0.00089781074692563
  17    -0.00038571101258463
  18    -0.0011044202175495
  19    -0.00081289644326006
  20    0.00010789301767962
  21    0.00097590962996342
  22    -0.0013160578290089
  23    -0.00034173462653734
  24    0.0010337960208864
  25    1.7179830353989e-05
  26    -0.0003626782273682
  27    -0.00046483731992831
  28    -0.00059245379053471
  29    -0.00015278410610904
  30    3.4143401607006e-05
  31    0.0002622577768805
  32     0.037448738872264
  33      0.10835036526293
  34    0.0017179635672854
  35    -0.00020294704503072
  36    0.0017057360147114
  37     -0.17221464305464
  38     -0.27732228165676
  39     0.013293596651988
  40    -0.060651868692872
  41    -0.064242653261705
  42    -0.016313386297545
  43    0.0095129374283855
  44     0.019553552248538
  45    -0.0045614120891455
  46    -0.0007625846016887
  47    1.3644240690086e-05
  48    0.00090664516591347
  49    0.00044367494522947
  50    -0.00029981148832713
  51    -0.00039091506412652
  52    -0.00065285388523693
  53    0.0011351041773737
  54    -0.00020144268123834
  55    -0.0010564086468644
  56    -0.00035728472746209
  57    -2.7222565333564e-05
  58    0.00059918293843818
  59    0.00037660034369492
  60    1.7372765087076e-05
  61    -1.8842365808242e-05
  62    0.00021171407013045
  63      0.25401422204285
  64    -0.0053709828583984
  65      0.01569299327044
  66    0.0012790792420071
  67    -0.0012169330677805
  68    0.00095020358664367
  69    0.00052754997870328
  70    -0.0049318826572551
  71    -0.00031211190993933
  72    -2.0494462430748e-05
  73    -0.00020060183935753
  74    0.00018149762486873
  75    -0.0001225773815563
  76    -0.00027153370331354
  77     -0.13156362838505
  78     0.010363566090957
  79    -0.0011375793424251
  80    -0.017093713639751
  81     0.015948234081652
  82    -0.0058554277763182
  83      0.01029380453424
  84    -0.0078152847597576
  85     0.001529932071293
  86    0.00053348968649021
  87    -0.00017028068082981
  88    -5.4084805293541e-05
  89    0.00082466569733012
  90    -0.00047288029490455
  91     0.012722820858485
  92    0.0023201488661534
  93    -0.00063559634496762
  94    -0.00026182279491942
  95     0.001059319215313
  96     0.012742551406241
  97    0.0020967245191438
  98    0.00017333479818327
  99    -0.00011447744841901
 100    -0.0012158611315796
 101    -0.012322261930999
 102    -0.0014908815190781
 103    0.00047224354342989
 104    0.0010311676722527
 105    0.00014669126219123
 106      0.47049875331601
 107    -0.010155652797844
 108     0.011693575143825
 109     -0.03517507599442
 110    0.0049211083274151
 111     0.021458382628497
 112     0.018412970454974
 113    -0.0030722668990092
 114    -0.010086570976467
 115    0.00075595816066606
 116    -0.00031967698743066
 117    -0.00026481863816699
 118    7.3343601764681e-05
 119    0.0019722693654583
 120    -0.022743089542554
 121    -0.0043211124457496
 122    9.3422259272669e-05
 123    0.00087144301290965
 124    -0.00069628238352925
 125     0.017339859733876
 126    0.0019128869403338
 127    0.0014979625822728
 128    0.0015842738534854
 129    0.0022561846786855
 130     0.027489340284505
 131     0.004038670517513
 132    -0.0027749996611697
 133    -0.0025169685070706
 134    -0.00056109000068579
 135      0.25144230114624
 136    -0.017610913240297
 137    0.0059719211211917
 138      0.04324007169514
 139    -0.016678160827728
 140     0.015788344103594
 141    -0.023061647984938
 142     0.010918069084491
 143    -0.0095830396666835
 144    -0.00015913002357246
 145    -0.0020660356303647
 146    -0.00032390020701643
 147    0.00078925932829493
 148    1.6870836722202e-06
 149    -0.015713983674708
 150    -0.0022431546119163
 151    -0.0012367231397951
 152    -0.0011291237398432
 153    -0.00097217356456316
 154     0.025944457497682
 155    0.0029689343542166
 156    0.0014981746119509
 157    0.00039352499978497
 158    -0.0020176573965787
 159    -0.032805378144527
 160    -0.0073248177773668
 161    0.0011885757727603
 162    0.0011441905853508
 163    0.0022951843746789
 164      0.41216296912329
 165    -0.015722214398576
 166     0.011628026322862
 167    -0.0079505117250298
 168    -0.025892719862042
 169     0.036983558230206
 170    0.0069957959038897
 171     0.016247806923783
 172    -0.021443243897868
 173    0.00010172379442675
 174    0.0013533305359092
 175    0.0014831585946671
 176    0.00027583006288155
 177    -0.0013664700025696
 178    -0.034607014979274
 179    -0.0071796654526661
 180    -0.0013520907359618
 181    -0.0014082362427093
 182    0.00079519625405972
 183         0.01721188063
 184    0.0029822601955968
 185    0.00011872881032347
 186    0.0022038896315913
 187    0.0014855993160961
 188      0.01679231436733
 189    0.00080081314348942
 190    0.0019268238775995
 191    -0.0014114726114054
 192    -0.0010059739215646
 193    -0.057546941565842
 194    -0.023205038177663
 195    -0.0080979409485128
 196     0.010555017048585
 197     0.033300614221555
 198    -0.043852535799796
 199    -0.0052806304260834
 200    -0.018722231437133
 201      0.02290849363102
 202    -0.0017213141270134
 203    0.0018680021550653
 204    0.00048533122834722
 205    -0.00019791009190351
 206    -0.00052706322472125
 207    -0.051115933210695
 208    -0.0076991469404575
 209    0.0025430028461059
 210    0.0009397233459147
 211    -0.0046015472655267
 212    0.0087168139503008
 213    0.0030522973847525
 214    -0.00011332197695978
 215    -0.00052070095002448
 216    0.0018693665322067
 217     0.015213137362325
 218    0.0044195431782191
 219    -0.0015724627549669
 220    -0.00040345874805189
 221    0.00093657350892007
 222      0.23978878402545
 223    -0.0045069322107044
 224     0.017067068249334
 225     0.017504664356524
 226    -0.044262610975181
 227    -0.012983873166952
 228    -0.0040397178482322
 229     0.023702225437922
 230    0.0098070621187755
 231    0.00055312872023977
 232    -0.00066211741481851
 233    2.2618491204763e-06
 234    0.0021811474431486
 235    -0.00044330410967038
 236    -0.035646581444902
 237    -0.008894673158846
 238    -0.00083588842103748
 239    -0.0023927021911444
 240    0.00016652367516694
 241    0.0073678182595765
 242    0.0009424913721365
 243    -0.00040032539827786
 244    0.0010264416353064
 245    0.0019964170699412
 246     0.028764054312117
 247    0.0038548397736585
 248    0.0024510900114844
 249    0.00050385178966058
 250    -0.0022584215329621
 251     0.052684562858781
 252    -0.022488038666394
 253    -0.0058816517264179
 254    -0.020369819860385
 255    -0.012756537563658
 256    -0.027196788869581
 257     0.010125276871344
 258    0.0031438491400276
 259     0.014733568784234
 260    0.0011541554262292
 261    0.00032245968638452
 262    0.00054764577621891
 263    -0.00019588889599664
 264    -0.00091599464832082
 265     0.019508705775185
 266     0.004316558509111
 267    0.00070326542950545
 268    -0.00065035762730705
 269    -0.0013971797639484
 270    -0.0008113974805521
 271    0.00096662403269905
 272    0.00098969507486849
 273    0.00044765696507241
 274    0.00092608803398194
 275    -0.026644021993486
 276    -0.0044056321514761
 277    -0.002181733089494
 278    -0.0012579935527108
 279    0.0013752059512897
 280     0.090186754865997
 281    0.0015983504556264
 282    -0.0022176488827931
 283    0.0079294787932598
 284    -0.039159698567522
 285     0.015595644856082
 286    -0.0026723470729233
 287     0.019883722724654
 288    -0.0069503970998261
 289    0.00057964146531708
 290    -0.00064913520028757
 291    -0.00041491351014931
 292    -0.00024089047417394
 293    0.0017079940896976
 294    0.0044798542604708
 295    0.0005629178450361
 296    -0.0003442190207103
 297    0.0011537129343162
 298    -0.0013222492530262
 299     0.029129926437232
 300    0.0051270986451357
 301    -0.0020576164616136
 302    -0.0013352587546416
 303     0.001772320142052
 304    -0.028291031080496
 305    -0.0066133166812297
 306    0.0019172185423408
 307    -0.001123953090218
 308    -0.00031221175948733
 309    -0.057465775467745
 310     0.028292456587974
 311     0.010063257534906
 312    -0.019558580591716
 313     0.020831845957984
 314    -0.00089928719946777
 315    0.0090586291125168
 316    -0.014507755560947
 317     0.001817428037743
 318    0.00027854459226652
 319    -0.00068757846523972
 320    -0.00017648843032572
 321    0.0011498237124194
 322    0.00037027111485112
 323    -0.010711175766531
 324    -0.0030671066193665
 325    0.00062252240225331
 326    0.0005835078521068
 327    0.00024969594561345
 328    0.0013296130281101
 329    -0.0018097648699773
 330    0.00069802112277162
 331    -0.00067272239781957
 332    0.00010946902067792
 333     0.023720609078259
 334    0.0025246491843416
 335    -0.0018509817829005
 336    -0.00036565313024627
 337    0.0013812892134877
 338      0.11979184421725
 339    0.0066228608300436
 340    0.0052202199519591
 341    -0.027731827785767
 342    -0.023839684177035
 343     0.019766615260629
 344     0.013364249016165
 345     0.010081806233297
 346    -0.010079483008646
 347    -0.0010483483631006
 348    0.00099120403519867
 349    0.00085048610263357
 350    -0.00056715209413771
 351    0.00056831011143169
 352     0.029478663430485
 353    0.0048244171889254
 354    -0.0013758371014085
 355    -0.0023335340301217
 356    -0.0018829261685436
 357    -0.025821230397019
 358    -0.005783417588868
 359    -0.00017001697546532
 360    0.00010806372822177
 361    0.0021562661694201
 362    0.0026783947354705
 363    -0.00048184054634903
 364    0.0016153704571551
 365    0.00068183603817225
 366    -0.00052528631508244
 Sym= A
 Ene=              48
 Spin= Alpha
 Occup=    1.00000
   1      0.13361507458548
   2      0.28206193442511
   3    -0.071218783984755
   4     0.014553771705923
   5    -0.0017531246678174
   6       0.1546882964353
   7       -0.206904144265
   8    -0.012693344793461
   9    -0.011805393331129
  10     0.018372075562534
  11    -0.036934375712614
  12    0.0011484369705804
  13    0.0015171917059208
  14    -3.1583905957575e-06
  15    -0.00029565730664844
  16    -0.00010241858853793
  17    0.00070843828095976
  18    0.00023180858899427
  19    -0.00017595775907044
  20    0.00021210318077016
  21    0.00066566414480441
  22    -0.0007948500690247
  23    0.00050218472536742
  24    0.0010398942079008
  25    -0.00018928671146033
  26    -0.00010045709376004
  27    0.00014147761355163
  28    0.00012779452419009
  29    6.5215596334991e-05
  30    0.00017513479335521
  31    8.4086379023851e-05
  32      0.11178329183696
  33     0.077958965536896
  34    0.0032865789707628
  35    0.0054745106841346
  36    -0.0015419905987684
  37    -0.075887444365515
  38       -0.400314371923
  39    -0.020147490688557
  40     0.011358446851401
  41    -0.024516319147639
  42    -0.030274875369302
  43    -0.0027156670578186
  44    0.00086830771368566
  45    0.0061261972432135
  46    8.1471133957508e-05
  47    0.00040279182221317
  48    -0.00048455404457093
  49    0.00027819325212625
  50    0.00060971590227294
  51    -0.00020764827045674
  52    -0.00019900600436548
  53    0.0010784122887555
  54    -0.0002897578250523
  55    -0.00033713936822258
  56    -0.00024654172117029
  57    -0.00015277720174671
  58    -1.2486646126971e-05
  59    5.9710614799793e-05
  60    -5.9064597018343e-05
  61    0.00038780921870659
  62    0.00011954662519007
  63     -0.08232245890166
  64    0.0049802061793461
  65    -0.0019943550247755
  66    0.0012009577621989
  67    -0.0024735207578266
  68    -0.0015667691275452
  69    0.0014086237404443
  70    -0.0029066737497014
  71    -0.0028481994984928
  72    0.00011363232416989
  73    2.0721040702052e-05
  74    3.1514559187211e-05
  75    3.2399892815922e-05
  76    0.00012682751055143
  77     -0.18010866613211
  78     0.027307786529808
  79    0.0025898093571721
  80    -0.0023840582305749
  81    -0.0090595779207607
  82     0.012047871017211
  83    0.0015909273518474
  84    0.0047617919371062
  85    -0.0066797108765973
  86    -0.00050567163340617
  87    -0.00050226127171903
  88    0.00017254138327293
  89    -0.00029658293406285
  90    -4.7226865226323e-05
  91       0.0105720834559
  92    0.00089753569818893
  93    -0.00089743153187576
  94    0.00061521840503992
  95    0.00017796138605413
  96    -0.0050690371344594
  97    -0.0012969572284198
  98    0.0001820029517874
  99    0.00016022464524585
 100    0.00030027586733244
 101     0.013899028583396
 102    0.0010053537330746
 103    8.8797867567352e-06
 104    -0.0011958729109253
 105    -0.00022712607373633
 106     -0.31601965115112
 107     0.017165397708781
 108    -0.0012752584930619
 109     0.032598294926031
 110     0.016894254321866
 111    0.00021150099321069
 112     -0.01792714454639
 113    -0.010823329548041
 114    -0.00025957264781915
 115    0.00064315615753544
 116    0.00042985406044894
 117    0.00068578553497692
 118    -0.00025436246722538
 119    -0.0013896345782668
 120     0.011792826311233
 121    0.0022471800040184
 122    -0.00053072512609898
 123    -0.0011634593861309
 124    3.1908746650798e-05
 125     0.010249675129215
 126    0.0019492421253224
 127    -0.0010622213860093
 128    -0.00044156212941234
 129    0.00058212536663806
 130     -0.02891023861955
 131    -0.0053342061027488
 132    0.0026037334808047
 133    0.0016887120777789
 134    -0.0002893617259947
 135    -0.099769851733395
 136    -0.0016926087622402
 137      -0.0100077971309
 138    -0.0094354065279065
 139    0.0020141729159685
 140     -0.00689470594588
 141    0.0044154469386389
 142    -0.0040566074528439
 143     0.006502036897497
 144    5.9688658440672e-05
 145    0.00054705867428347
 146    0.00022446852094184
 147    -6.1507857856095e-06
 148    -3.9745880029629e-05
 149    -0.0011918771033549
 150    0.00029623233313338
 151    0.00043419964177945
 152    -0.00036498185120106
 153    -2.469894953403e-07
 154    -0.0068579931027173
 155    -0.00065658098831099
 156    -0.00064291702186715
 157    0.00013994292672637
 158    0.00054576858716816
 159    0.0072680914154435
 160    0.0014688426990226
 161    -0.00010207337296616
 162    -6.1546498838058e-05
 163    -0.00029520312095699
 164       0.0363661382368
 165    -0.014651367709485
 166    -0.0051850235046775
 167    -0.0061773191608246
 168     0.015180191171631
 169    -0.025564454205901
 170    0.0018736114277268
 171    -0.0086059743251518
 172     0.013336455698395
 173    -1.8980021131784e-05
 174    -0.0007821729370965
 175    -0.00078082568454415
 176    -8.8573673007259e-05
 177    0.0010271482563369
 178     0.015757619864964
 179    0.0036037217498109
 180    0.0010765396819763
 181    0.00069868676486389
 182    -0.00014473899992488
 183    -0.016359615446559
 184    -0.0024133519241563
 185    0.00028370160196836
 186    -0.001571609425608
 187    -0.0010900497891997
 188    -0.019440305874122
 189    -0.0037621162602683
 190    -0.0012868929777948
 191    0.0014592610356106
 192    0.00063653132693625
 193     -0.12311914152445
 194    0.0025976065020711
 195    -0.0034880015645664
 196    0.0018676011771564
 197    -0.0023456852261316
 198    0.00022894086055722
 199    -0.00058971110161455
 200    0.00088989272522022
 201    -0.00087140592033244
 202    9.7852338305158e-06
 203    -2.4510758701607e-05
 204    -6.3212382943502e-05
 205    1.0734204974521e-05
 206    5.5425514138611e-05
 207    -0.00096569408466814
 208    -0.00011495059288708
 209    4.7463136541732e-05
 210    0.0002960576488025
 211    -0.00035754505615643
 212    -0.0013861287924384
 213    -3.7138133502099e-05
 214    -0.0003739980881475
 215    -0.00028461979285826
 216    -5.1992773951316e-05
 217    -0.0028837793607155
 218    -0.00035080906597442
 219    0.00044414373691345
 220    -0.00023222096172546
 221    0.00034310652530647
 222     -0.42074983139472
 223     0.010307819595656
 224    -0.016705830099816
 225    0.0064552314376396
 226     0.026456318888387
 227    -0.015645640379773
 228    -0.0075354831730713
 229    -0.016366874429543
 230    0.0068041319217802
 231    -0.00087901103842835
 232    -0.00072923000113997
 233    0.00028852317211648
 234    -0.00083229773390608
 235    2.1745316290352e-05
 236     0.018219852560606
 237    0.0060105820949706
 238    0.00014343289805735
 239    0.00056679189081379
 240    0.00077401067435266
 241    -0.020057371498026
 242    -0.0024027244810093
 243    -0.0010272504270163
 244    0.00040354139609484
 245    -0.0025037159103883
 246    0.0031858451164232
 247    0.0021607553699003
 248    -0.00031408054862184
 249    -0.00058653240331299
 250    0.0009122281953373
 251     -0.19576228005739
 252    0.0013097202577879
 253    -0.0061107051735922
 254    0.0064617869064343
 255    -0.0041427975661214
 256    0.0070767354599717
 257    -0.0036603222837509
 258    0.0019585155356748
 259    -0.004116790259818
 260    -0.00015290009275113
 261    -0.00011491259132865
 262    4.8787252645515e-05
 263    0.00011789514291107
 264    0.00042430469318242
 265    -0.005800357563125
 266    -8.7350587785545e-05
 267    -0.00012758926603627
 268    0.00080145415482746
 269    0.00080648340531255
 270    -0.0083684705701783
 271    -0.00061472841584835
 272    0.0010716938463327
 273    -0.00061339441037394
 274    -0.000321655218805
 275    0.00013727796163321
 276    0.0013633199050716
 277    -0.00073699593192764
 278    -9.2508979648293e-05
 279    -0.0003213798938855
 280      0.24720122925304
 281    0.0059270942956664
 282     0.010876479738258
 283    -0.00084164365697658
 284     0.020088114780981
 285    -0.010829472921301
 286    -0.0014333656091246
 287    -0.012313513377537
 288    0.0046544564812456
 289    -0.00033768648697218
 290    0.00046908386345617
 291    0.00037378657317188
 292    0.00022465000026959
 293    -0.00081391524105079
 294    0.0061152010866396
 295    -5.8369385442885e-05
 296    0.00024137146964244
 297    -0.0012165623440639
 298    -0.0010634923655189
 299     -0.01081156951178
 300    -0.0036172901637826
 301    0.00057546420691913
 302    -9.002273729442e-05
 303    0.00026188971531314
 304     0.018940832835549
 305    0.0021014669267139
 306    -0.0017354917778784
 307    0.0017718234155641
 308    0.00019176490829046
 309     -0.22708473080678
 310     0.011711097074628
 311    -0.0059992982969688
 312     0.021911387255292
 313     -0.01846489577312
 314    0.0060384607123945
 315    -0.011354969233417
 316     0.010454960914287
 317    -0.0060010673685141
 318    -0.00011824367283883
 319     0.001022223268183
 320    0.00030989763035407
 321    -0.00078891432343525
 322    -0.000259448960905
 323     0.016980846394258
 324    0.0038559402769523
 325    -0.00037878519845125
 326    -0.0012948954558182
 327    -0.00048646396671413
 328     0.011358209691159
 329    0.0024111620769238
 330    -2.4527639080293e-05
 331    0.00098767473371149
 332    0.00059573530957666
 333    -0.015139843050108
 334    -0.0034750082372363
 335    0.0012176407145352
 336    0.00068096345006462
 337    -0.0010242250454575
 338     -0.31085550902298
 339    0.0087594249328511
 340    -0.011699359252454
 341    0.0042995343878252
 342    0.0080464983551386
 343    -0.014439114221075
 344    -0.0042076151024421
 345     -0.00183724296935
 346    0.0094806597819066
 347    0.00050478918893604
 348    -0.00038770304825285
 349    -0.00049835228990375
 350    0.00018269264955686
 351    0.00025213588068954
 352    -0.0059966704330826
 353    -0.00055031903186473
 354    0.00083882734943348
 355    0.00069096944896577
 356    0.00076739128118815
 357     0.011815139397786
 358    0.0031895731664558
 359    0.00039484011993516
 360    -0.00031235107560129
 361    -0.00034113465115211
 362    -0.0077401344121189
 363    -0.00062819949853941
 364    -0.0013516658409408
 365    0.0004311754413994
 366    -0.00042246353744354
 Sym= A
 Ene=              49
 Spin= Alpha
 Occup=    1.00000
   1     -0.13712313098612
   2     0.054933270368451
   3     0.066068113854543
   4    -0.0036553289236528
   5     0.001537437124241
   6    -0.054419238631067
   7      0.12271360318403
   8     0.076026012924632
   9    -0.026246943524929
  10     0.051484597498825
  11     -0.15629513514511
  12    0.00087392273015213
  13    0.00093537085033763
  14    0.0082099145549347
  15    0.00049122124702448
  16    0.0010265649833915
  17    -0.0015768757159166
  18    0.0010565174061651
  19    0.0018905926092103
  20    0.00061626947017068
  21    0.0012783537425103
  22    -0.00096711991154389
  23    9.8676356960101e-05
  24    0.0017304101440041
  25    -0.0004078301039576
  26    8.8346033424946e-05
  27    -5.3485749221402e-05
  28    9.8606102170065e-05
  29    -0.00032203270997845
  30    0.00034668688178827
  31    0.00041150471619147
  32    -0.065890970228669
  33    -0.026888930473089
  34     0.081553151287879
  35    -0.0087820904963993
  36    0.00069706038624025
  37     0.019616754427292
  38      0.30098725457857
  39    -0.015673898706708
  40     -0.15265598552093
  41     -0.17673058392291
  42      0.19107700578354
  43      0.02005122403472
  44    0.0088697876549993
  45    -0.012065273511383
  46    -0.00030582577772841
  47    -0.00014785600598842
  48    0.0008088583923903
  49    0.00081369052532246
  50    1.6181368358933e-05
  51    -0.00020176679586458
  52    0.0015937556968754
  53    -0.0015270533550515
  54    0.0013538680184412
  55    0.0021506670791484
  56    -0.00016077099315301
  57    -0.00018986687618227
  58    0.00024766414222435
  59     0.001113047900515
  60    0.0011772770572352
  61    0.00023547716344909
  62     0.000201326902349
  63     -0.39933710409861
  64       0.0264624630261
  65    0.0053701204723359
  66    0.00024597284715296
  67    0.0011461552018906
  68    0.0010190229887087
  69    -0.003205708004891
  70    0.00018179946481658
  71    0.0016312661728471
  72    0.00035659422671621
  73    -0.0002945999836901
  74    0.00047634432338394
  75    0.00012920365994293
  76    1.967036603188e-06
  77       0.1621890953917
  78     0.042905646297521
  79     0.019850893977469
  80    -0.028681958384005
  81     0.033292598003048
  82    0.0031192345653291
  83     0.012018163145917
  84     -0.01880342130401
  85    -0.0056626140015644
  86    0.0006775943407404
  87    -0.00039720175819916
  88    3.4990034581064e-05
  89    0.0018686023024925
  90    -0.00068398271395234
  91     0.042774003579484
  92    0.0035694635251136
  93    -0.0037787694822222
  94    0.00091819324002024
  95    0.0037557077594943
  96     0.027255862300561
  97    0.0040558952535249
  98    5.6408517566406e-05
  99    8.3497079306544e-05
 100    -0.0042142652775406
 101    -0.012165402956894
 102    -0.0042454301009145
 103    0.0012269335149638
 104    -0.00063632599772137
 105    0.00029488045524706
 106     -0.11996856465819
 107     0.033766457217369
 108     0.025586888030938
 109    -0.0072513716750741
 110     0.017261776070029
 111    -0.014098488246695
 112    0.0044525959518971
 113    -0.017557423630448
 114     0.014846878205878
 115    0.00026131201597431
 116    -9.0970273615088e-05
 117    -0.00016578078138329
 118    -7.1395982491461e-05
 119    0.00047291299794032
 120    -0.0034870566647859
 121    -0.00053582085014842
 122    0.00010488665352756
 123    -0.00015740776814376
 124    0.00042771494397964
 125    0.0047412835277631
 126    -0.0016240533549915
 127    0.00032588019663142
 128    -0.0002185150563045
 129    0.00069736914919352
 130    0.0063488568952812
 131    -0.00098419318753231
 132    -0.0004314671581274
 133    -0.00066222963343913
 134    0.00031829845501452
 135      0.32746846985754
 136    0.00084431574891802
 137    -0.0017659062121062
 138    -0.046884813128931
 139     0.023634848760328
 140    -0.017117284822086
 141     0.023333360288035
 142    -0.016258220020124
 143     0.012359263353328
 144    0.00034920665345177
 145    0.0022493435229622
 146    0.00011455957145419
 147    -0.001074611530468
 148    -6.602593857355e-05
 149     0.024036613836963
 150    0.0040969005158414
 151    0.0011164609741899
 152    0.0032938090641451
 153    0.0015600031821568
 154    -0.025969055547891
 155    -0.0074815172081762
 156    -0.00029296510100108
 157    -0.00092637860672432
 158     0.001517227189218
 159     0.038305288206186
 160     0.005451402390672
 161    -0.0021930188279798
 162    -0.0019129187471962
 163    -0.003427100512346
 164      0.30540762777077
 165    -0.0095944355907667
 166     0.011081257144914
 167     0.015806875157743
 168    -0.0097577787122589
 169    -0.066278591665588
 170    -0.0062937254378587
 171    0.0066574744238728
 172     0.036480489629233
 173    -0.0018613367169012
 174    -0.0012573914156249
 175    -0.0025772277082465
 176    0.00056545548712536
 177    0.0005164358366562
 178     0.037924607002109
 179    0.0062801054014661
 180    0.0014447853283779
 181    0.0038323086244322
 182    -0.0011557376655998
 183    -0.050285001524877
 184    -0.0091177874909586
 185    -0.00055493129301225
 186    -0.0027204923597963
 187    -0.0027452251176165
 188    0.0099073920816895
 189    -0.00027973974770736
 190    0.00039440890708551
 191    -0.0010770468518062
 192    0.0026989519855911
 193     0.025996488601151
 194     0.011309136482369
 195    0.0047378242949428
 196     0.062951966465504
 197     0.028181558527911
 198      0.03883380435636
 199    -0.036567746037072
 200    -0.013793317824375
 201    -0.022896476668084
 202    -0.00038357992049245
 203    -0.00037532586603119
 204    0.0017816045673146
 205    -0.0016290023477512
 206    0.0029002458602239
 207    0.0021995353259318
 208    0.00044927906956818
 209    -0.0023026092199105
 210    -0.0011032659490979
 211    -0.00073663594919557
 212     0.060411048031594
 213     0.010374594967156
 214    0.0026459598128749
 215    0.0049953472835257
 216    0.0011668656730289
 217    -0.040441620701498
 218    -0.0078784875415434
 219    0.0015760238439416
 220    -0.0034337373348254
 221    0.00083275277853084
 222      0.19381113604996
 223    -0.008395854749956
 224    0.0022320110647836
 225      0.01790557431684
 226    0.00092701249199513
 227    -0.0063597277461997
 228    -0.010459167538461
 229    -0.0012058106766642
 230    0.0075061426782732
 231    -0.00017171534359287
 232    -0.00034931754434292
 233    0.00021916184170793
 234     0.000580845618883
 235    -0.00013967890552603
 236    -0.00020429339024729
 237    0.0033247485459684
 238    -0.00028363443174167
 239    0.00066192936315583
 240    -0.000238025486282
 241    -2.2394494950449e-05
 242    0.0012929210129331
 243    -0.00050665012911285
 244    -0.00030416431857737
 245    0.00075270137181732
 246     0.013237219980518
 247    0.0012364521479188
 248    0.0009861826528579
 249    -0.0003918660291083
 250    -0.0012618708830838
 251     -0.24073544422066
 252     0.030083210423342
 253     0.022694887778116
 254     0.019615405197753
 255     -0.04025574432214
 256    -0.015559179654256
 257    -0.013432201990616
 258     0.028596049580125
 259    0.0012243992235688
 260    0.0018890065207047
 261    -7.0924234367473e-05
 262    0.00072208599171455
 263    -0.00016724476150627
 264    0.0013640280821266
 265     0.031891634779184
 266    0.0048782178652353
 267    -0.00037086130987263
 268    -0.00052460165951539
 269    -0.0026876812615227
 270    -0.027652871865112
 271     -0.00547814762224
 272    0.0021943730939928
 273    -0.00063421339076833
 274    0.00075840218292895
 275    0.00088406310502862
 276    -0.00088304257387352
 277    -0.00087376539270704
 278    0.0010092163122699
 279    0.00063980372272393
 280      0.32498348320726
 281     0.052686687076213
 282     0.026675374521135
 283    -0.022481304312599
 284     0.019156257276497
 285     0.027635313472601
 286    0.0071167568327727
 287    -0.012485323049842
 288    -0.012759227556572
 289    -0.0014879567041185
 290    -0.00046104396484641
 291    -0.0011277137675873
 292    0.00035164617376532
 293    -0.00055157973859642
 294    -0.0076739201903537
 295    -0.0045950729683171
 296    0.0009985341792119
 297    -0.00056354842119312
 298    -0.0015255862612123
 299     0.033606380833806
 300    0.0024631756085559
 301    -0.0010486165739674
 302    -0.0047045066653453
 303    0.0026170674256011
 304     0.043828531080619
 305    0.0027589293184917
 306    -0.0031475047484958
 307    0.0048752144149464
 308    -0.0017823575192806
 309    -0.091524613398615
 310      0.01580811386132
 311    -0.015628315465685
 312     0.014494329843913
 313     -0.01552227942633
 314     0.030770579047234
 315    -0.010251711122597
 316      0.01285415805379
 317     -0.02402658331449
 318    0.00026161774136597
 319    0.00093204066058725
 320    0.00048963372305702
 321    4.4223458769911e-05
 322    3.020224761797e-05
 323     0.011615949532413
 324    0.0036420862602439
 325    9.0684736466983e-05
 326    -0.0012785895124557
 327    -0.0010153472913908
 328     0.025609400847437
 329    0.0038055474436439
 330    0.0017567674296243
 331    0.0010416865897736
 332    0.0012525113710039
 333    0.0031754837424846
 334    -0.00080501414361469
 335    -0.0009235927303118
 336    0.00062139177403459
 337    -0.00068068790609174
 338     -0.15777236608377
 339    -0.038192223108152
 340    -0.017978716245332
 341    -0.041657708719666
 342    -0.048717912271278
 343      0.02369017733614
 344     0.019438399573213
 345     0.027148742133059
 346    -0.0097799541662623
 347    -0.0020127370487546
 348    0.0017972750132997
 349    0.0012093400232573
 350    -0.0011463751005084
 351    0.00098015930775827
 352     0.032576576750983
 353    0.0081190142080316
 354    -0.00048198276116129
 355    -0.00091610266732982
 356    -0.0020580003685198
 357    -0.058058871918817
 358    -0.0070820960251047
 359    -0.0015494141398124
 360    -0.00099267215209324
 361    0.0062774151701234
 362    -0.013553057286712
 363    0.00061710020498631
 364    -0.0002266519964349
 365    0.0030232762429765
 366    -0.0022554573208086
 Sym= A
 Ene=              50
 Spin= Alpha
 Occup=    1.00000
   1     -0.12995377535859
   2     0.039692560762622
   3     -0.15006728753274
   4    0.0087382889871612
   5    -0.0023630091423979
   6     -0.07318992031834
   7      0.15506760233212
   8     0.011219956095733
   9     0.087627834683031
  10    -0.080586362784291
  11     0.018579737001594
  12    -0.0042940275193957
  13    0.00077424931590308
  14    -0.0097954746577307
  15    -0.00023358083588357
  16    -0.001710984404454
  17    0.0020807627416748
  18    -0.0010453999964523
  19    -0.0025164097199895
  20    -0.00079561382358351
  21    -0.00041264601833075
  22    0.00057466915556746
  23    -0.00021278591188555
  24    -0.00048407172662501
  25    0.00013856789295048
  26    -0.00051497211470035
  27    0.00013041396655313
  28    -3.076842340801e-05
  29    -0.00044167376475339
  30    0.00010988317120635
  31    0.00023548467507006
  32    -0.099814238122495
  33     0.093539689082664
  34     -0.20131366121168
  35     0.018892809649334
  36    -0.00073291696874608
  37    -0.057367066586405
  38      0.25503678953404
  39     0.064825739907298
  40     0.088236308969721
  41      0.06955456083012
  42    -0.095242818756334
  43    -0.0087473774074139
  44    0.0078834164249149
  45     0.010546711025456
  46    -0.00010554596423247
  47    5.6178668211942e-05
  48    8.0051591391741e-05
  49    -0.00046208109952597
  50    -0.00017536529268791
  51    -0.00013480714670532
  52    -0.00084541828834645
  53    0.0023909132676616
  54    -0.00059529828006684
  55    -0.0008459119495132
  56    0.00058396667332288
  57    -0.00010206555957219
  58    -3.1435783751075e-05
  59    -0.0007497935962307
  60    -0.00092941989621816
  61    -0.00043051886107524
  62    -0.00040414886975227
  63      0.38372356098419
  64      -0.0262309590722
  65    -0.0022642896401932
  66    -0.0011186986081697
  67    -0.0036872317353223
  68    -0.0004739178550628
  69    0.00024279461691424
  70    -0.004907005134148
  71    8.7583925768981e-05
  72    -0.00014226087316955
  73    0.00022485487157468
  74    -0.00013296550747634
  75    -0.00028372845892743
  76    3.9122299604933e-05
  77     -0.17268394925574
  78     0.025899063942922
  79    0.0044715598582641
  80    -0.036904038266385
  81     0.005519787757214
  82     0.071801597819445
  83     0.019764616421832
  84    -0.0054669442883348
  85    -0.039849750802158
  86    -0.0019541262319159
  87    -0.0031146397750661
  88    0.00096505935250091
  89    0.0013890828147651
  90    -0.0006151041840111
  91     0.062504950699139
  92     0.010040122185294
  93    -0.0049454167634227
  94    0.0022465887294523
  95    0.0018879751396753
  96    -0.042689565126791
  97    -0.008708652900049
  98    0.0028193081103172
  99    -0.0014129756000234
 100    0.0023088284868507
 101     0.003301559109968
 102    0.0018828027120388
 103    0.0013887561391161
 104    -0.00060980949745828
 105    -0.0024400490794928
 106     -0.32063684039502
 107     0.022874056406131
 108    -0.012056813349927
 109    -0.00085262886544578
 110    0.0026808565314265
 111     0.025025676261567
 112    -0.0014858590876306
 113    0.0035112017673132
 114    -0.018200446914087
 115    0.00053494699830761
 116    0.00014107572366745
 117    0.0005978842237413
 118    0.00010536414785428
 119    0.00026171387767002
 120    -0.0024301783537477
 121    -0.004569881893738
 122    -0.00072190104072642
 123    6.7904754136731e-05
 124    -0.00095668504470926
 125     0.020773013118166
 126    0.0048345522117354
 127    9.1298693071972e-05
 128    0.00067366563183989
 129    0.0014233525405667
 130    0.0038883060315674
 131      0.00220998161148
 132    0.00020822414758124
 133    -0.0004054197292787
 134    -0.00050001605926115
 135    -0.061869638668214
 136    -0.060276685317604
 137    -0.011929645702804
 138     0.040961647460034
 139    -0.036866342816208
 140     0.016097845484332
 141    -0.022028044864185
 142      0.02120256259416
 143    -0.0059640670735895
 144    0.00017234088824131
 145    -0.0019630037851078
 146    -9.9322206495033e-05
 147    0.0015494772856012
 148    9.2740745733362e-05
 149    -0.048731193114835
 150    -0.0045055230774068
 151    -0.00044124367884871
 152    -0.0057165895205727
 153    -0.0024458086285181
 154     0.007089904572768
 155    4.463803386675e-05
 156    -0.0018803682091848
 157    0.0014114466318465
 158    -0.00041869115115888
 159    -0.046913750836624
 160    -0.0078923725341697
 161    0.0033571389607418
 162    0.0023897091873103
 163     0.004391249319089
 164      0.22347092120095
 165     -0.04611572493935
 166    -0.014575441654886
 167    -0.021127641089159
 168    -0.040007692298907
 169     0.063099043503306
 170    0.0083578373796343
 171     0.019502351752312
 172    -0.036099468876327
 173    0.0005861910789767
 174    0.0018931420894419
 175    0.0024363231416182
 176    8.0430981531167e-05
 177    -0.0023846905954949
 178    -0.073281810227654
 179    -0.012533235097531
 180    -0.003205140494966
 181    -0.004556416603032
 182      0.00370070597926
 183     0.018421789308481
 184    0.0062277472883657
 185    0.0010013511928095
 186    0.0025418274498864
 187    -8.4781093620351e-05
 188    0.0096405626184935
 189    0.0023018107376607
 190    0.0014990928699682
 191    0.00053782901223119
 192    -0.0022512558361679
 193      0.24573515571651
 194    -0.0095157432200511
 195     0.005266335449217
 196     0.052282119395992
 197     0.038655086572841
 198    -0.032978558184286
 199    -0.028734282067957
 200    -0.021666581977762
 201     0.020550181555242
 202    -0.0019956180382886
 203    0.0018251070365062
 204    0.0016800486228778
 205    -0.00097775670821774
 206    0.00099852493660448
 207    -0.049467584763208
 208    -0.0093977985215681
 209    0.00064219368480023
 210    0.00014666318302463
 211    -0.004091083615651
 212     0.043865927010459
 213     0.007805931287317
 214    0.0014842918531222
 215      0.00349943598075
 216    0.0025929060122815
 217    -0.0051620101896511
 218    -0.0013182238722219
 219    -0.0014012288748609
 220    -0.0013070907964298
 221    0.0011437908339062
 222      -0.1107885893729
 223     0.011582296889741
 224    0.0080111138037905
 225     0.018487426929967
 226    -0.056867875697949
 227    -0.022467376468735
 228    -0.0072610102727556
 229     0.029900006079737
 230     0.010502095314416
 231    0.00082456428359959
 232    -0.0012886643414429
 233    -0.00011474584469704
 234    0.0023994650382439
 235    -0.00086539559994412
 236    -0.046273766180847
 237    -0.014491769374639
 238    -0.0010884714705078
 239    -0.0042500305390496
 240    0.00068867529910549
 241     0.002385989649183
 242    -0.00093314137815455
 243    -0.0007431264486835
 244    0.0020245381687351
 245    0.0010605791596512
 246     0.037090361909091
 247    0.0051951588865923
 248    0.0028341567923576
 249    0.00065360659307172
 250    -0.001813920532803
 251     -0.21621301410151
 252    -0.052792336633773
 253    -0.034953390950799
 254    -0.066440514415555
 255    -0.047336738658647
 256    -0.030908051841637
 257     0.037473751302609
 258     0.020069153871084
 259     0.023222261525221
 260    0.0022782207566493
 261     0.000788839332751
 262    0.0017525443547261
 263    -0.00052230654532115
 264    -0.0032375653813751
 265     0.023589790001131
 266    0.0077599902754942
 267    0.0018110202737502
 268    0.0014005322680273
 269    -0.00092425272030503
 270    -0.0016602156945036
 271    0.0037408021529502
 272    0.0035336322860792
 273    0.00067408314424348
 274    0.00055074513328373
 275    -0.086383118315624
 276    -0.013641151836136
 277    -0.0077382871550128
 278    -0.0048855955933997
 279     0.001839242605094
 280     0.087877301768842
 281    -0.034693631433294
 282    -0.015751843569345
 283    -0.0077159138726545
 284    -0.030481020806893
 285     0.072321704331009
 286     0.011627347919388
 287     0.017140248241285
 288    -0.040224615208986
 289    -0.001042144776923
 290    -0.0017063714148784
 291    -0.002794610667244
 292    -3.1289065178903e-05
 293    0.0018363455201484
 294    -0.051428626180841
 295    -0.0067411420753314
 296    -3.1353602459196e-05
 297    0.0038515357367523
 298    0.0036524211280241
 299     0.046630250466196
 300     0.011308276537691
 301    -0.0026251983460959
 302    -0.002798087769778
 303    0.00059001947859109
 304     -0.02896076867889
 305    -0.0078577230185458
 306    0.0025631659449995
 307    -0.0020898752289364
 308    -0.0018353062223845
 309     -0.13535947458701
 310    0.0019566686981054
 311    0.0047948459509942
 312     0.014300952324862
 313    -0.046611055531277
 314     -0.05913326032438
 315    -0.0052519838747226
 316     0.023820351788137
 317     0.036192997269565
 318    -0.001697076392644
 319    -0.0002079881187581
 320    4.7204101947473e-06
 321    -0.0029878887195017
 322    -0.00090974059120155
 323     0.047502939955591
 324    0.0085810351675578
 325    0.00036659198300713
 326    -0.0039545736946774
 327    0.00081666089468848
 328    -0.036489265018961
 329    -0.0064070812338929
 330    -0.004022642407556
 331    0.00075957401299033
 332    -0.0014434920143941
 333     -0.03402894475728
 334    -0.0064154521511784
 335    0.0038454446078583
 336    0.0016374296030682
 337    0.00022246158393141
 338      0.15410327449289
 339     0.028131888543184
 340     0.011199031416666
 341    -0.063937833987059
 342     0.019731906731115
 343    -0.058540526633346
 344     0.036785186650969
 345    -0.011353750445468
 346     0.031208095302885
 347    0.0013181716414044
 348    -0.0019809702708077
 349    0.0012342265593723
 350    -0.0012126014201657
 351    0.0032168200387347
 352     0.042021033188384
 353    0.0057665068970606
 354    -0.0012533715488589
 355    -0.0053070429434409
 356    0.00039182330682328
 357     0.038317087537483
 358     0.005497006824732
 359    0.0044399106104653
 360    0.00083629079986368
 361    -0.0026595624780119
 362    -0.059327432793565
 363    -0.013436438822263
 364    -0.0033497780030696
 365    0.0024053595661838
 366    -0.0011849887279941
 Sym= A
 Ene=              51
 Spin= Alpha
 Occup=    1.00000
   1    -0.028399971207382
   2    0.0079948042117539
   3     -0.22279407774176
   4     0.053447379823723
   5    -0.012228604585131
   6      0.11594276150224
   7      0.10694590861549
   8    -0.0028938633212817
   9     -0.23427306598965
  10     -0.21919969655064
  11    -0.0060635555131162
  12     0.027991364028586
  13     0.011664780632263
  14    -0.0037689264764148
  15    -0.00016591352196995
  16    -0.00041764225864464
  17    0.0026367319574114
  18    -0.00025808854883862
  19    3.2286794326595e-05
  20    0.00087114760467911
  21    0.00095499669174067
  22    0.00059618862190889
  23    -0.00049114076813835
  24    0.0011604679584235
  25    -0.00018647125606042
  26    0.00045438166799824
  27    0.0016589256204384
  28    0.0010469552819303
  29    -0.0008108360709849
  30    0.00020629256533191
  31    -0.00065250395558016
  32     0.015643714254835
  33     -0.11346734444877
  34     0.037634801172944
  35     0.048696224630439
  36    -0.008793376335972
  37     0.084778936574025
  38      0.03072763094912
  39      -0.0388160185058
  40     -0.30311815905513
  41     -0.06951194446894
  42      0.10590304404615
  43     0.013343943376048
  44     0.040030309355555
  45    0.0077367882981566
  46    -0.0005307024571247
  47    -0.0022981207680588
  48    0.0020830887172582
  49    -0.0014263529060362
  50    -0.0032146599751239
  51    0.00061334264104222
  52    0.0014149936087058
  53    -0.0030214658542713
  54    0.0016475286115239
  55    0.0020347840183418
  56    -0.0010839454583651
  57    -0.00062188433029668
  58    0.00038043315816867
  59    0.0013001572628225
  60     0.001911720531937
  61    0.00072345860667667
  62    0.0009866969257689
  63     0.074154335844331
  64     0.020371694497872
  65     0.023518552685977
  66    0.0070416066823609
  67    -0.0017293537150467
  68    0.0014944768515906
  69    -0.0043197769895051
  70    -0.0014937298742362
  71    0.0074969075363498
  72    7.376093221653e-06
  73    -0.00049487488594983
  74    0.00098581559241648
  75    -0.00051947438096502
  76    -0.00059051854557011
  77     -0.12934620062654
  78    -0.036671589368331
  79    -0.050429153909257
  80    -0.0098610554283179
  81     0.048557882736723
  82    -0.046130376156472
  83     0.020325989652804
  84    -0.019915935412656
  85     0.030607775677544
  86    0.0028776479992568
  87    0.0011930931715563
  88    -0.00087505140856316
  89    0.0011893740581298
  90    -0.00090825634861849
  91    -0.016966952541861
  92    0.00086153981693055
  93    0.0019967487556521
  94    -0.0025882957762441
  95    -0.00047283543654239
  96     0.035935333699634
  97     0.013481740114617
  98    -0.0015960052890581
  99    -0.001280330158068
 100    -0.0017012141853415
 101    -0.054469783378157
 102    -0.010096034979957
 103    0.00021668164430741
 104    0.0059089762413253
 105    0.00060031141457453
 106      0.11303437277452
 107     0.078401930111009
 108     0.043388261745551
 109     -0.12731508080704
 110    -0.016622851356668
 111    -0.054138484957867
 112     0.064942838256421
 113    -0.00038772149352379
 114     0.039625446404946
 115    -0.0025912725206908
 116    -0.0019001425967364
 117    -0.0019082514046597
 118    0.0010864794751318
 119    0.0055069143757623
 120    -0.039606207560689
 121    -0.015389772090804
 122    0.0017758934092107
 123    0.0039990835767997
 124    0.0016982890708183
 125    -0.031330129980488
 126    -0.011962825458475
 127    0.0043771000409346
 128    -0.00024112890284112
 129    -0.0013040729116524
 130      0.12140955488432
 131     0.019357368544559
 132    -0.009839193673648
 133    -0.0074832758326857
 134    0.0030818748020401
 135     -0.36839906842314
 136    -0.032070909548822
 137    -0.033961830148814
 138    -0.094499142979732
 139    -0.031414700595528
 140    -0.027155759977878
 141     0.045341081451959
 142    0.0096887354826619
 143     0.020977950502053
 144    0.0018361911563532
 145    0.0048247760099039
 146    0.00058543277784464
 147    0.00044774405771874
 148    0.00015363427485557
 149    -0.036659095247309
 150    -0.0024749716716351
 151    0.0043777210220312
 152    -0.0044952066500891
 153    -0.00078359412274527
 154    -0.074719899300644
 155     -0.01328163552273
 156    -0.0063689107021973
 157    0.0020364091728562
 158    0.0050641587286069
 159     0.061664126672571
 160     0.017598035196028
 161    -0.00063862398511304
 162    0.00054532111598417
 163    -0.0041049546074683
 164      0.12477021855234
 165     0.053087977176626
 166     0.062953559005121
 167     -0.05704789628185
 168     0.025704869597612
 169    -0.025510625961162
 170     0.049924218975133
 171    -0.0076363739512536
 172     0.021911818585741
 173    0.00052533819106537
 174    -0.00049479753967804
 175    7.9207721805978e-06
 176    0.00015245056766372
 177    0.0021885608115375
 178       0.0252726167679
 179    -8.0466701625359e-05
 180    0.0028001389894664
 181    0.0014483438933614
 182    -0.0020114930531161
 183      0.01127801176915
 184    -0.0018920688587692
 185    0.0010674338078675
 186    0.00014467133456361
 187    0.0025507063322873
 188    -0.029501364313549
 189    -0.016197848249181
 190    -0.00064956554222818
 191    0.00096361441188867
 192    -0.0002134534777299
 193     0.030540640152381
 194     0.008037246527646
 195    0.0037741252826895
 196    -0.022811667307014
 197    -0.023887959804431
 198    -0.049824401376776
 199     0.007970566399459
 200      0.01105551586488
 201     0.028573559583314
 202    -0.00065176878493584
 203    0.00076506422308951
 204    -0.00078561956893402
 205    0.00089603773526182
 206    -0.0020494702862503
 207    -0.016899671512454
 208    -0.0037562996311505
 209    0.0021272877972318
 210    0.0016308181742734
 211    -8.2031419459611e-05
 212    -0.034215703548788
 213    -0.007390128504735
 214    -0.0021164930050037
 215    -0.0026580362302711
 216    0.00039149017311226
 217     0.030451315468406
 218    0.0056496402245397
 219    -0.0016692243780097
 220    0.0027913402591785
 221    -0.00019765578279388
 222    -0.044269318097507
 223     0.016070706983776
 224      0.01003676363373
 225     0.038521594215276
 226    -0.079111368780194
 227    -0.022512244085733
 228    -0.016737817051744
 229     0.040322519436042
 230     0.018246433503964
 231    0.0013032811499049
 232    -0.0010717269491949
 233    -5.1199816165031e-05
 234    0.0037743670073982
 235    -0.00092025706577475
 236    -0.062817204266852
 237    -0.011082281858905
 238    -0.0014509065694773
 239    -0.0049498286477128
 240    0.00051894077589365
 241     0.018567192693447
 242    0.0066419248138508
 243    -0.00056074156502095
 244    0.0021823139191542
 245    0.0030875505779486
 246     0.054424589961432
 247    0.0095047063732744
 248    0.0042861034121586
 249    0.0011838046922955
 250    -0.0036000575255782
 251     -0.20793041976044
 252    -0.0073375998487627
 253     0.013748770763784
 254      0.12544965747556
 255    -0.072534672208416
 256    0.0035158796850621
 257     -0.06990967244325
 258     0.042225071872832
 259    -0.012469718161203
 260    0.0020118732785881
 261    -0.0010194281014139
 262    0.00041520716542542
 263    -1.508219329454e-05
 264    0.0064260558065306
 265     0.016325062504861
 266    0.0033717440104612
 267    -0.0037003419680001
 268    0.0017288511064967
 269    -0.0012680621309627
 270      -0.1234444771479
 271     -0.02444212850662
 272    0.0086751627170774
 273    -0.0072273051532688
 274    0.00020635104767027
 275      0.04652844504067
 276      0.01017526178593
 277    -0.00048111306681206
 278    0.0053351192576066
 279    -0.00023023151609266
 280     -0.12577687751765
 281     0.047309676761349
 282     0.031298863349929
 283     0.081908249547892
 284    -0.011771728564526
 285    -0.025691357195473
 286    -0.057521226991247
 287    -0.000349003895863
 288     0.013450388170106
 289    0.0016466149295634
 290    0.00048974974278687
 291    0.0019453646727715
 292    -9.1300792939479e-05
 293    0.0006016530074857
 294      0.03665256387899
 295    0.0047158253681489
 296    -0.002730687425515
 297    -0.001232801489466
 298    -0.0032919606845714
 299    -0.019165661901393
 300    -0.0073010245814819
 301    -0.001125179465042
 302    0.0021946732179266
 303    -0.00040791000990504
 304    -0.034374181108715
 305    -0.013334911783494
 306    0.0011208387651448
 307    -0.002827607893987
 308    0.0011662346460797
 309     0.090650381878006
 310     0.066000812516669
 311     0.026910362848592
 312     0.041115564350672
 313     0.026775019440513
 314    -0.0075181363396039
 315    -0.026972710057671
 316    -0.022053280009778
 317    0.0078614637183202
 318    0.0014873125783303
 319     0.001901946417651
 320    0.00013605372412052
 321    0.00020309296991369
 322    0.00032615870108576
 323    0.0082981429345898
 324    -0.001237366677847
 325    -0.00051195692622479
 326    -0.0027511876140317
 327    -8.8900434903574e-06
 328     0.045310600429631
 329     0.004769222827494
 330    0.0028548029831226
 331    0.00056925364956839
 332    0.0043741570888107
 333    -0.0086064280467117
 334    -0.0062343279836942
 335    -0.00098650022380858
 336    -0.0001846332609778
 337    -0.00031749913264703
 338    -0.076556450163694
 339     -0.05534314784366
 340    0.0015648957352682
 341     -0.08467904651413
 342    0.0092252209014692
 343      0.12869632963529
 344     0.047572976181087
 345    -0.013326950177953
 346    -0.074623131909375
 347    -0.0033854899417641
 348     0.003169683533526
 349    0.0017415047163741
 350    -0.00097629310326117
 351    -0.00052623182219107
 352    -0.0041353154676795
 353    0.0015848132422557
 354    0.0045383921747461
 355    0.0015158655648669
 356    -0.0039287646024882
 357     -0.13139329737709
 358     -0.02096839684496
 359    -0.0044728407584501
 360    -0.0057440725781546
 361     0.012095801349927
 362    -0.019249494967691
 363    -0.00024730078235712
 364    -0.00026393196333483
 365    0.0017630051811251
 366    -0.0067798133617802
 Sym= A
 Ene=              52
 Spin= Alpha
 Occup=    1.00000
   1     -0.24593286966573
   2      0.13613285846534
   3     0.015582111534103
   4    -0.0057506589700522
   5    -0.00089215375052065
   6      0.27804530026601
   7      0.11203900920995
   8    -0.046420012685301
   9     -0.17658840451217
  10     -0.14355658750297
  11    0.0094476012219826
  12     0.005839889161298
  13    0.0078566695761944
  14    -0.0042464120919462
  15    1.0987656654298e-05
  16    -6.0129318782519e-07
  17    -9.5370555157406e-05
  18    -0.00070530066996479
  19    -0.00022225556014947
  20    -5.6466721107566e-05
  21    0.00061978941823137
  22    -0.0012600628280934
  23    -0.00033720024468914
  24    0.00063075509548397
  25    -0.00083555107434788
  26    0.00023243442352501
  27    0.00061067968293471
  28    0.00066284189153214
  29    0.00060823354283672
  30    0.00041563297656656
  31    0.00012324086087061
  32     -0.18258512911895
  33      0.18327193751761
  34    -0.015798420123613
  35    0.0089114282641929
  36    -0.0010281492435449
  37    -0.032646236715755
  38     0.074302752863379
  39     -0.13449336223219
  40      0.13220792437071
  41    -0.039396339598277
  42      0.18564855050079
  43    -0.0091919633247819
  44    0.0054003968407462
  45    -0.011944706978654
  46    0.00060760568389643
  47    -0.000666447797399
  48    0.00039535936496884
  49    -0.00038089678695117
  50    -0.00044706171697539
  51    0.00066959623820225
  52    -0.00068101482644827
  53    0.00073133696784263
  54    -0.00062603359389464
  55    -0.00034471781152878
  56    0.00098394258229404
  57    0.00010790514760165
  58    0.00024612254183872
  59    -0.00017583131874399
  60    -0.00060090770348679
  61    -0.0005769757666179
  62    -0.00083387087468666
  63     0.039867698325187
  64     0.002201451998365
  65    0.0050714076954252
  66    0.00024924283506005
  67    0.0030815180867128
  68    -0.0012951900032168
  69    0.0012829336309789
  70    -8.664376226519e-06
  71    0.00033147187617509
  72    0.00013161832581376
  73    7.7896435821796e-05
  74    0.00043612507317379
  75    -0.00017924087740615
  76     0.000173777606447
  77      0.20378959718925
  78    -0.020137245044256
  79    -0.006155506373755
  80     0.012044593495732
  81    -0.012215338383799
  82    -0.027814436330886
  83    -0.0050626043437846
  84    0.0059076451765239
  85     0.019006625359477
  86    0.00054808859128794
  87    0.0011239237901144
  88    -0.00033082649491504
  89    -0.00090029686474995
  90    0.0003985683554838
  91    -0.026079037021615
  92    -0.0048706835640329
  93    0.0019582956003294
  94    -0.0002650804040342
  95    -0.0008961973725321
  96     0.011931031571011
  97    0.0017686543837798
  98    -0.00084001440676576
  99    0.00095023508372994
 100    -0.00065745410237378
 101    0.0066836295209653
 102    0.0021633086987941
 103    -0.00036157916049924
 104    -0.00059597026630232
 105     0.001010355709393
 106      0.34563814489213
 107     0.024507323284439
 108     0.023588570688121
 109     0.058913047084796
 110     0.019382828332281
 111     0.020598979198948
 112    -0.034303846322311
 113    -0.014299618924471
 114    -0.0099971586606777
 115    0.0015009599070194
 116    0.00076196302785956
 117    0.00080172127456363
 118    -0.00084305959647962
 119    -0.0026626209770509
 120     0.036971006419011
 121    -0.00045547921087684
 122    0.0023901209123029
 123    -0.0041630649991685
 124    -0.0014596687218754
 125     0.038917887501792
 126     0.005671376491233
 127    -0.0010046719308055
 128    0.0022082489476012
 129    0.0046903159634303
 130    -0.035598219974939
 131    -0.010161342731444
 132    0.00054306822072194
 133     0.001400034252884
 134    -0.0014390494102475
 135      0.11410308458976
 136    -0.015442289409312
 137    0.0014926209678834
 138    -0.025451492701372
 139     0.033717883506526
 140     0.023400642491307
 141     0.010590605289592
 142    -0.019751316982738
 143    -0.015287226622077
 144    -0.00072599268240381
 145    0.00091539296535442
 146    3.1435524054683e-05
 147    -0.0021481887749695
 148    -0.00037990828595186
 149     0.029421077250872
 150    0.0058935814752162
 151    0.00058927633244642
 152    0.0027195217501932
 153    0.0001393970507053
 154    -0.033691314704168
 155    -0.0061967073972287
 156    -0.0026941553718086
 157    -0.000876500298842
 158    0.00081679641380863
 159    -0.0061384875827998
 160    0.0010795566288432
 161    0.0014122766201519
 162    -0.0010824180024851
 163    -0.00049083414915829
 164     -0.13508852374334
 165     0.035488789178706
 166      0.01342512038882
 167     0.021521518585923
 168     0.024560538790009
 169    -0.085243531219305
 170    -0.0076758499519312
 171    -0.013218323790926
 172     0.050208316055675
 173    -0.0013040851279827
 174    -0.0020427012495986
 175    -0.0033825332049136
 176    0.00026184531502591
 177    0.0021341529732158
 178     0.075005000985898
 179     0.014225481390988
 180    0.0034193548615526
 181    0.0053267581399472
 182    -0.0028551904331788
 183     -0.04240538910006
 184    -0.0088486250238771
 185    -0.00098860869338645
 186    -0.0031652018251535
 187    -0.0019280640944511
 188    -0.0030719714199067
 189    0.00029010049188436
 190    -0.00073454867870948
 191    -0.00069483952412912
 192    0.0026471862684539
 193     -0.12310467863333
 194    -0.0050644756478819
 195    -0.0012283480569948
 196    -0.0027146013922127
 197    -0.040046688507529
 198     0.041779345160222
 199    -0.00049579499969637
 200     0.021905098193238
 201    -0.022264562577268
 202    0.0017989344568374
 203    -0.002106669919522
 204    -0.00046255418478992
 205    0.00018146722779647
 206    0.00056286678713622
 207      0.03857104313579
 208    0.0080724336163066
 209    -0.0017504853307623
 210    0.00023366641095893
 211    0.0024929670151632
 212    -0.021387958837496
 213    -0.0031958296268723
 214    -0.0015680421288872
 215    -0.0010754983156344
 216    -0.0022207263770028
 217    -0.032290493941332
 218    -0.0050749488210959
 219    0.0036232724558827
 220    -0.00066607252278523
 221    0.00063753795077328
 222     -0.46591474792049
 223     0.016625899955478
 224    -0.0084658163040042
 225    -0.0022400603466736
 226    -0.037544611115305
 227     0.033349593857179
 228    0.00085906725610081
 229     0.019207626120535
 230    -0.017682380148378
 231     0.001841463861077
 232    0.0010089061336893
 233    -0.00075658654665684
 234    0.00069177719715229
 235    -0.00071135672317087
 236    -0.032081372580753
 237    -0.0050012439634125
 238    0.00028859467519006
 239    -0.0037771256369246
 240    -0.0015729303598607
 241      0.03298098801881
 242    0.0057170747584129
 243    0.0010039734794345
 244    0.00038608202636112
 245    0.0016792187143908
 246    -0.011183407367056
 247    -0.0027907951501614
 248    -0.0018624401138733
 249     0.002069345453518
 250    0.00033869804465501
 251     -0.22359706272991
 252     0.019855669452105
 253     0.013699524483453
 254    -0.041911599919581
 255    -0.041649851467457
 256    -0.022584486568205
 257     0.024576750005545
 258     0.027343625690416
 259    0.0097521747844634
 260    0.0020814163852441
 261    0.00042651362567683
 262    0.0010681678518278
 263    -0.00056646013705483
 264    -0.0018981330674413
 265     0.036025509132054
 266     0.006932717550514
 267    0.00092516483474783
 268    -0.00033491372897802
 269    -0.0030420857812736
 270    0.0080627177525284
 271    -0.00073690237117753
 272    0.00084723776100768
 273    0.0017250455133091
 274    0.00075142720074841
 275     -0.04388518174829
 276    -0.010484055567019
 277    -0.0033309668763235
 278    -0.002102464016484
 279    0.0014490976685358
 280     0.002883767822547
 281    -0.017180070014727
 282    -0.0059271609796576
 283    -0.016398982529221
 284    -0.018049531291474
 285     0.091868928435544
 286    0.0091375205238636
 287    0.0084465989165466
 288    -0.049817389584001
 289    -0.0019517542943688
 290    -0.0019649851651152
 291    -0.0034465589057495
 292    0.00018109027440172
 293    0.0016541589492601
 294    -0.066150915201016
 295    -0.010995758881946
 296    0.00053615186651433
 297    0.0046130444426665
 298    0.0046437523640772
 299     0.058146335033079
 300     0.013884304176849
 301    -0.0026007258810441
 302    -0.0042991167204112
 303    0.00099472047220937
 304    -0.012938111287865
 305    0.00070910802495017
 306     0.001677799779165
 307    -0.00093229522972295
 308    -0.0033434631326927
 309     0.043240329347073
 310    -0.032191306270513
 311    -0.018265507856437
 312     0.014291940125539
 313    -0.055519119410772
 314    -0.049729618003765
 315    -0.0043974362516371
 316     0.034594780557838
 317     0.025697117578881
 318    -0.0017940455387189
 319    -0.00017035012203951
 320    0.00020107641036186
 321    -0.0030497585570022
 322    -0.0009957835171935
 323     0.044666598940921
 324    0.0094326391004497
 325    0.00023164293582338
 326    -0.0034874782048118
 327    0.00072795574862601
 328    -0.040619188261398
 329    -0.004356339127041
 330    -0.0042140917755199
 331    0.00075087516867558
 332    -0.0019045832751448
 333    -0.039157781554822
 334    -0.0054364174711842
 335    0.0042313140017446
 336    0.0016101066485285
 337    -0.00032180832661355
 338      0.21270561916135
 339    -0.0026537924906875
 340    0.0064339957846165
 341     -0.04263564133696
 342     0.012775226449869
 343    -0.037307460156431
 344     0.026436714039465
 345    -0.0086706711432241
 346      0.02204130300581
 347    0.00076674775440883
 348    -0.0014294527708933
 349    0.00080712357770111
 350    -0.00091660364230435
 351    0.0019691449789788
 352     0.022244401436283
 353    0.0035560192733081
 354    -0.00072639234121297
 355    -0.0027650283463071
 356    6.8748166430827e-05
 357      0.01879980386003
 358    0.0032957461737154
 359    0.0024579641711016
 360    0.00025276787455638
 361    -0.0011878428877016
 362     -0.04293693704781
 363    -0.0085353869858209
 364    -0.0024255349834856
 365    0.0020324761390846
 366    -0.00091465046975406
 Sym= A
 Ene=              53
 Spin= Alpha
 Occup=    1.00000
   1     -0.16124631028741
   2      0.10026784898471
   3      0.13065260787011
   4    -0.013724786759995
   5    0.0028027451997962
   6    0.0077444863520363
   7     0.099267721932919
   8    -0.041854886611219
   9    0.0033717706428651
  10     0.016626537002193
  11       0.1560620965751
  12    0.0013996023569563
  13    0.0029501652549888
  14    -0.0040079536007661
  15    0.00023815862998027
  16    0.00024166446357236
  17    -0.0010959753553335
  18    -0.00029933165490511
  19    0.00030540843244919
  20    0.00031751051213306
  21    -0.00094099440985361
  22    0.00099864935850036
  23    -0.00024509585501458
  24    -0.001291852082865
  25    7.5287566168418e-05
  26    0.00035432844202151
  27    0.00057086201263336
  28    0.00041974133067916
  29    0.00057363651094021
  30    -0.00027384219706353
  31    -0.00062359839075887
  32    -0.046807914145292
  33     -0.10977332338398
  34      0.17115453401265
  35    -0.0097519114749647
  36    -0.0010729748531588
  37     0.025567966582075
  38      0.21012191083746
  39     0.049237810317863
  40    -0.036729613614432
  41     0.038629776023673
  42    -0.054992534167623
  43    0.00020234826121634
  44     -0.01603696647579
  45    -0.0019526386635059
  46    -0.00015749617957683
  47    -0.00015220199943207
  48    0.00053559682133694
  49    -5.3145743392272e-05
  50    -0.00026521193632683
  51    0.00011511362725759
  52    -4.0022129666585e-05
  53    -0.00056983895702591
  54    0.00016345866801536
  55    -0.0001910026019054
  56    -0.00050431847111343
  57    0.00029629855271165
  58    -0.00034254831783265
  59    0.00022984488651063
  60    0.00037658224197675
  61    0.00018798466528953
  62    0.00056014076269745
  63     -0.17552740148033
  64     0.010119118735257
  65    -0.0027547259919516
  66    -0.0011689695203247
  67     0.002790931836772
  68    0.00092764503312548
  69    -0.00029579098383387
  70    0.0042367202546504
  71    0.00079299810777567
  72    -0.00013137080048786
  73    -3.0460057227563e-05
  74    -0.0001587796016126
  75    1.1072126368484e-05
  76    -0.00011240642153228
  77     -0.44230139537719
  78     0.005348540994284
  79    -0.0067680901307651
  80     0.031002830678427
  81    -0.010986029176391
  82    -0.074409428608665
  83     -0.01667191573669
  84    0.0071585709731903
  85      0.04354353407967
  86    0.0019866296508499
  87    0.0029677542248573
  88    -0.0010084834551059
  89    -0.0017273199041548
  90    0.00053050957919346
  91    -0.060614501231588
  92    -0.0081002663118288
  93    0.0056005145490846
  94    -0.0023753166268758
  95    -0.0025722148353809
  96      0.04412766506928
  97    0.0087589463731901
  98    -0.002457003794845
  99    0.0014726387844848
 100    -0.0013810659341173
 101    0.0023078810592761
 102    -0.0013505649984152
 103    -0.0011738509092176
 104    0.0012392516239556
 105    0.0021985028137495
 106     0.091094973744811
 107    -0.020139223106481
 108    -0.0023352280390068
 109     0.014270897457903
 110    0.0047440522480396
 111    -0.0062314361623339
 112    -0.0058389816896498
 113    -0.0036114476330036
 114     0.005519556222861
 115    -1.1177328764462e-06
 116    8.7317462868394e-05
 117    -1.8511958350762e-06
 118    -0.00016415832242623
 119    -0.00067135253042782
 120    0.0026193588654708
 121    0.0045894593193659
 122    -0.00024367713584275
 123    -0.00014036211478991
 124    0.00033567228367175
 125    -0.0054736152094969
 126    -0.00065698005098822
 127    -0.00052267592533577
 128    -0.00042393841926477
 129    -0.00047332432082586
 130    -0.017951755496798
 131    -0.003768162042189
 132      0.00137283729238
 133    0.0011169481993667
 134    -0.00033089155468188
 135       0.1406353079766
 136     0.016854795760403
 137    0.0096949691875828
 138     0.032846100238049
 139     0.025297656013969
 140    0.0061251723257108
 141    -0.016346645503077
 142    -0.012356391347398
 143    -0.0067685226694594
 144    -0.00074463359292431
 145    -0.0016150817362072
 146    -0.00040310858218719
 147    -0.00060604093342689
 148    -0.00010019544654359
 149     0.025035198521281
 150    0.0022711586940247
 151    -0.0017200005876027
 152    0.0027500914236265
 153    0.00083401857096195
 154     0.028371336467443
 155    0.0090346202249745
 156    0.0027579168835723
 157    -0.0011977274016661
 158    -0.0021222458481772
 159    -0.019305283804553
 160    -0.002820768826564
 161    5.1833800507019e-05
 162    -0.00062734997001212
 163    0.0010089767142033
 164      0.16457237501008
 165    0.0039436060164296
 166    0.0083058559006046
 167    -0.0029422606426134
 168     0.039269722571975
 169     -0.00455345251541
 170    0.0034103491421561
 171    -0.020103045827008
 172    0.0045179468056575
 173    0.0007934498332507
 174    -0.00043748475009755
 175    -4.9913580686894e-05
 176    -0.00015671383989877
 177    0.0017572564386345
 178     0.025314618526114
 179    0.0047582462465636
 180    0.0017372481793373
 181    0.0008966472771241
 182    -0.0022924412647915
 183     0.016317701522206
 184    0.00072863925592294
 185    -0.00033788533690082
 186    5.3955319255269e-05
 187    0.0023411468772617
 188    -0.023755005446353
 189    -0.0043642482164033
 190    -0.0015776739329977
 191    0.00033192193710685
 192    -0.00030232944106701
 193      0.23962938857419
 194    -0.015249514804211
 195    0.0045591178431222
 196    -0.071910528078011
 197    -0.040058853190244
 198    -0.013492668403199
 199     0.039915517885971
 200     0.023016026342965
 201     0.009265279121374
 202     0.001217806267154
 203    -0.00073887798273242
 204    -0.002026630053718
 205    0.0016464356660888
 206    -0.0029049191733497
 207     0.023900061777107
 208    0.0034972617618927
 209    0.00098179502632036
 210    0.00021738984160392
 211     0.003299337896784
 212    -0.064437350862422
 213    -0.012018231893338
 214    -0.001839416140903
 215    -0.0047256731162985
 216    -0.0019030413172606
 217     0.034515027348874
 218    0.0059864809551286
 219    -0.0012460466290686
 220    0.0034124896871749
 221    -0.0018751826366725
 222     -0.30080929847112
 223     -0.00023238000731
 224    -0.017543077630629
 225    -0.018256852327947
 226      0.05257398578346
 227     0.016929706324583
 228    0.0050373348538856
 229    -0.027187226907557
 230    -0.010948100054864
 231    -0.00073286173562505
 232    0.00091130988518588
 233    0.00012319364992363
 234    -0.0024344746870684
 235    0.00068697327794772
 236     0.040769308867172
 237     0.011616070640537
 238    0.00099326089398553
 239    0.0026603846456156
 240    -0.00026541355944649
 241    -0.0090941172014254
 242    -0.00020882462108161
 243    0.00041236314973785
 244    -0.0013711646955649
 245    -0.0024898039850813
 246    -0.035413055754156
 247    -0.0029328469728867
 248    -0.003124468438765
 249    -0.00038037742021358
 250    0.0027681552657063
 251      0.05944716796483
 252    0.0062017821091334
 253    0.0021858613300633
 254     0.033080534719391
 255     0.051114824298847
 256     0.038720780891654
 257    -0.017431069506544
 258    -0.027828044850088
 259    -0.020718846497927
 260    -0.0028313143728005
 261    -0.00051534407998059
 262    -0.0015366599553404
 263    0.00050432699125599
 264    0.0014413282526453
 265    -0.046027658258587
 266    -0.0083179807868038
 267    -0.00074324846727969
 268    0.00059058786941543
 269    0.0037857921249401
 270    0.0085930508250601
 271    -0.00076271509283231
 272    -0.0021684628284939
 273    -0.0010788741804903
 274    -0.0012506603627995
 275      0.04878334126374
 276     0.010253072497904
 277    0.0041734128050443
 278    0.0017960179528997
 279    -0.0019783237918596
 280     -0.11316446910361
 281     0.010048807333006
 282     0.010148614656888
 283     0.037785482459951
 284    0.0056817836150265
 285     -0.10118353374663
 286    -0.028571173748833
 287    -0.0027181547502401
 288     0.054125002695958
 289    0.0027010147346812
 290    0.0021547023199137
 291    0.0040524906904043
 292    -0.00020008252458403
 293    -0.00081818750824785
 294     0.074314353871748
 295     0.011869829108101
 296    -0.00096452089185989
 297    -0.0044538110031396
 298    -0.0047727015457523
 299    -0.066339419152226
 300    -0.013508640264025
 301    0.0025868772570014
 302    0.0056819034117715
 303    -0.001448615938663
 304    -0.009038028140099
 305    0.0027163764884531
 306    -0.00050620946141191
 307    -0.00088761769172791
 308    0.0035589026875164
 309     -0.29976712717491
 310      0.01754159028671
 311    0.0021937701759114
 312     -0.04641219553993
 313      0.04791291624508
 314     0.040132258462308
 315     0.023681545765769
 316    -0.026711176350554
 317    -0.020896976096604
 318    0.0010779009462927
 319    -0.0013863488464646
 320    -0.00021308855171421
 321    0.0032443565298074
 322    0.00080896424975794
 323    -0.049992749068707
 324    -0.0089262460439234
 325    0.00032296122457499
 326     0.005172851925883
 327    8.0566185286685e-05
 328    0.0085388513639142
 329    0.0020581883360182
 330    0.0022368011659138
 331    -0.0017317481119461
 332    -0.0010739277290683
 333     0.051583154101899
 334     0.010521151360143
 335    -0.0038435557564155
 336    -0.001872350845475
 337    0.0009312026661003
 338      0.19058012105753
 339    0.0013386065438863
 340     0.012585872596948
 341      0.10060104727151
 342     0.010936131602846
 343     0.056313923321304
 344    -0.054024524958661
 345    -0.0082949933378503
 346    -0.034607126888108
 347    -0.00031755646711049
 348    0.0011019071797483
 349    -0.0021022710122501
 350    0.0021923079771388
 351    -0.004662600450622
 352    -0.064836484991241
 353    -0.012174735446989
 354    0.00087743814087562
 355    0.0056170125024299
 356    0.00056234126164257
 357    -0.0021472806438848
 358    -0.0020960076072171
 359    -0.0035611350470998
 360    0.00025099012717535
 361    -0.0022089853428929
 362     0.084568359721071
 363     0.015305228605087
 364    0.0051979257133673
 365    -0.0054141209861097
 366     0.003694003422941
 Sym= A
 Ene=              54
 Spin= Alpha
 Occup=    1.00000
   1     -0.20031392035057
   2     0.076748099422812
   3     -0.03220296114083
   4    -0.0019383967535093
   5     0.001548374549075
   6      0.24536792652504
   7     0.065174424555257
   8     -0.14080131894717
   9    -0.023411611595172
  10    -0.077138396505821
  11      0.24408178846778
  12    0.0027127709266738
  13     0.010631662796628
  14    -0.021005979510161
  15    -0.00090307018075185
  16    0.0017843983980633
  17    -0.00032752648902819
  18    0.0016004632527247
  19    0.0020157995845584
  20    -0.00091709018066695
  21    -0.00057297864923859
  22     0.002595569443015
  23    0.00027140704855399
  24    -0.00096985369748709
  25    -0.00018682048015175
  26    0.00058044403695785
  27    0.0015485214229321
  28    0.0010278154790299
  29    0.00078201417379275
  30    -0.00068094493998328
  31    -0.00061705240603599
  32     -0.15196398006905
  33       0.1350576581783
  34     0.023920766215232
  35    -0.018520767168829
  36    0.0036772915509371
  37     0.077089036479897
  38    -0.054308270697132
  39     -0.13306663362423
  40    -0.096144164535916
  41     0.032402543106319
  42    -0.059419595611625
  43    0.0026939186264182
  44    -0.0057953300124453
  45    0.00089143498544331
  46    -1.4769404863736e-05
  47    0.00019123607657157
  48    -0.0010829355601824
  49    -0.00015534729675048
  50    -1.7463270667988e-05
  51    0.0006881785534412
  52    -0.00058132862866398
  53    -0.00069035221789608
  54    0.00030856915099643
  55    -0.00030535805314456
  56    -0.00023275487222052
  57    -7.9909998284617e-05
  58    -0.00019290509281737
  59    0.00012505766948029
  60    0.00012164009418965
  61    0.0002064217956367
  62    0.00042981522315888
  63     -0.02330636623104
  64     -0.02164385797737
  65    -0.019087603046609
  66    -7.3330936890088e-05
  67    0.0017568475669339
  68    0.0018486633003775
  69    -0.0012735528658762
  70    0.0018618645856625
  71    0.0057014917492914
  72    -0.00037227705834659
  73    0.0004143204857783
  74    -0.00068244455345656
  75    0.00031049080821241
  76    0.00025204699482744
  77      0.14896494543368
  78    -0.019835421880855
  79    0.00016185934528257
  80     0.052468463210472
  81    -0.036177158606764
  82    -0.078220610550268
  83    -0.028655387819595
  84     0.019089969974413
  85     0.048852869359331
  86    0.0014496285720508
  87    0.0035473329948036
  88    -0.0010319833905544
  89    -0.0029142034878371
  90    0.0013057362481076
  91     -0.08107474807984
  92    -0.013900678717239
  93    0.0062089486385127
  94    -0.0016347480018197
  95    -0.0032631896371536
  96      0.03689959949718
  97    0.0058274251126442
  98    -0.0030121991161839
  99    0.0026670559251938
 100    -0.0015560997759315
 101     0.024114903932728
 102    0.0023392499497244
 103    -0.0017489424714368
 104    -0.0016938038877299
 105    0.0024249484289621
 106     -0.32177739108051
 107     0.045815263613562
 108    0.0016759222762396
 109    -0.0093873309138966
 110     0.025470491076231
 111     0.032306779923376
 112    0.0058014632394051
 113    -0.013740558150752
 114    -0.017007691920565
 115    0.0014755854825922
 116    0.00014534795054481
 117    0.0011195329688564
 118    7.3992812111109e-05
 119    0.00082373107176722
 120    -0.011799527550523
 121    -0.0035768889342395
 122    -0.00086964804133812
 123    0.00027217792549438
 124    -0.0011577801010637
 125     0.041707888755993
 126    0.0064130243005094
 127    0.0008646104193276
 128    0.0013641971239118
 129    0.0035229028402457
 130    0.0067349882350636
 131    -0.0012473571417476
 132    -0.00024456387709539
 133    -0.0010808295302153
 134    -0.0011750888810038
 135     -0.17379370931743
 136    -0.066662913224985
 137    -0.025809577712151
 138     0.023990345549716
 139     0.050995372228626
 140     0.046192885156806
 141    -0.012205207632561
 142    -0.029979246724156
 143    -0.023035642320601
 144    -0.0019819597590009
 145    -0.0016368369879134
 146    -2.3901545658319e-05
 147    -0.0025798712067673
 148    -0.00048919991128765
 149     0.023574226232103
 150    0.0082601724524826
 151    -0.0011037959290641
 152    0.00015879887439357
 153    -0.0014862974178702
 154     -0.02567756849162
 155    0.0028071137350722
 156    -0.0047084587649025
 157    -0.001346165448476
 158    -0.0001726856992051
 159    -0.072700232304701
 160    -0.0084286296506719
 161     0.006480724757689
 162    0.00023724948977729
 163    0.0053031257399425
 164      0.35253370398482
 165    -0.0090620253037471
 166    0.0031069283147085
 167     0.012312364759414
 168    -0.009016191889106
 169    -0.0079389258739632
 170    -0.008804048217743
 171    0.0032236144114494
 172    0.0078103523555896
 173    -0.00045653293132392
 174    0.00014136474215848
 175    -0.00064481255434974
 176    0.00024507418124024
 177    -0.00025039878665335
 178    0.0050083280809146
 179    0.00029648352323924
 180    0.00031666398762425
 181    0.0010691700427229
 182    -0.0007188033600403
 183    -0.0066395133318581
 184    -0.0037978044397306
 185    -0.00087366981101055
 186    0.00059873771659578
 187    5.3189831533575e-05
 188     0.013469478583712
 189    0.0025982279113204
 190    0.0010716053880794
 191    -0.0016537880859636
 192    0.00017301896253872
 193     -0.20709553929232
 194     0.033433663749423
 195    0.0030543452436706
 196    -0.071571614513626
 197    -0.029093722375629
 198    -0.0073377177737671
 199     0.039438174461635
 200     0.013167677453435
 201     0.008732536384943
 202     0.001145028683746
 203    -0.00039041081417245
 204    -0.002103284167155
 205    0.0015651969259094
 206    -0.0024846820242298
 207     0.035173545002361
 208    0.0061619087721434
 209    0.00026653922565679
 210    -8.9607412890213e-05
 211    0.0040207652209236
 212    -0.048487798603585
 213    -0.010677887602047
 214    -0.0011169362301631
 215    -0.0037638520169235
 216    -0.0019369985652581
 217     0.043442659184398
 218    0.0067378550730283
 219    -0.0016483552125012
 220    0.0036221537317297
 221    -0.0022352481434623
 222     0.046586225521686
 223    -0.036625411398792
 224    -0.0068217687920194
 225     -0.03524814844201
 226    0.0069530739301113
 227     0.046707651194686
 228     0.019399035443086
 229    -0.0027302613309143
 230    -0.026630918333255
 231    0.00088103136915232
 232    0.0022097963612628
 233    -0.000567742922982
 234    -0.0013883965423348
 235    0.00045219343638598
 236    -0.0027290793474805
 237    0.0021734450322326
 238    0.0014477120591001
 239    -0.0010618486770323
 240    -0.0015771261295031
 241     0.015008434892538
 242    0.0044130518874298
 243    0.0018101875773212
 244    -0.00079019255834589
 245    -0.00037671068606419
 246    -0.056386112801462
 247    -0.0078772631309146
 248    -0.0046106697781349
 249    0.0017156883851323
 250    0.0030329492574213
 251      0.17751186114043
 252    -0.032267809594011
 253    -0.0063478973903783
 254     0.033358460360767
 255     0.024942722450206
 256     0.016058513578158
 257    -0.018232775678023
 258    -0.017706333767316
 259    -0.0062081535646069
 260    -0.0013184225006366
 261    -0.00038304896399571
 262    -0.00076868548765521
 263    0.00028194422315097
 264    0.0015196918015141
 265    -0.029813355690941
 266    -0.0036606760204443
 267    -0.00083830277370143
 268    0.0008291630845165
 269    0.0026809215331377
 270    -0.016609371953605
 271    -0.0067402671312836
 272    0.00052059243705804
 273    -0.0018110930593499
 274    -0.00039764551074503
 275     0.025935409274903
 276    0.0049984438830953
 277    0.0015196952000854
 278     0.001087657095951
 279    -0.00092385473883362
 280      0.23810448000015
 281    -0.014776708518579
 282    -0.0014606674258268
 283    0.0084032480729208
 284    -0.0027059215708106
 285    -0.056095184692644
 286    -0.0056099996962859
 287    0.0027540894166657
 288     0.030485121490338
 289    0.0014470057871968
 290    0.0012324638246614
 291    0.0021192764823108
 292     -2.6831276031e-05
 293    -0.00043116528589239
 294     0.041439912246772
 295    0.0055968148330508
 296    -7.7855852940294e-05
 297    -0.0025286349159229
 298    -0.0031598523428511
 299    -0.031989408127835
 300    -0.0060345876493663
 301    0.0012151302225021
 302    0.0025227857724981
 303    -3.6978145508649e-05
 304    -0.0040278545550895
 305    0.0039659614087522
 306    -0.00019635044882594
 307    0.00018963102238441
 308    0.0018286369334864
 309       0.3026528564297
 310     -0.02713757132409
 311    0.0084513606069726
 312    -0.042047722004959
 313     0.011631712203691
 314    -0.010171537681275
 315     0.020380218359222
 316    -0.007343736214295
 317    0.0081415590406079
 318    -0.0002493807757874
 319    -0.0019465932609141
 320    -0.0005487883931669
 321    0.0007400017192702
 322    0.0002582311821751
 323    -0.017454757982041
 324    -0.0038743081787686
 325    0.0013091435621214
 326    0.0016215855215913
 327    0.00056441987420407
 328    -0.031127272054431
 329    -0.006155581089669
 330    -0.00084103016304668
 331    -0.0012433657220509
 332    -0.0022864601498847
 333     0.025241606474025
 334    0.0045335324964616
 335    -0.0017723308948017
 336    -0.00014113139846578
 337     0.001769034478793
 338      0.19975049181799
 339    -0.008676534305311
 340    0.0069068398209215
 341     0.061988202730316
 342     0.017014451899607
 343     0.022259528226911
 344    -0.034288891587879
 345    -0.010408991166909
 346    -0.014800598008013
 347    0.00045346735368614
 348    8.5795188150001e-05
 349    -0.0013486940019698
 350    0.0013293688419259
 351    -0.0026489977365578
 352    -0.045379608889555
 353    -0.0084579961137066
 354    0.0008821176224703
 355    0.0035795729669089
 356    0.00098843251101679
 357    0.0089033480579393
 358    0.00077353165618906
 359    -0.0014990290986901
 360     0.000130565833801
 361    -0.0020305554783741
 362     0.041430766458407
 363    0.0072370156098802
 364    0.0022932525367574
 365    -0.0031333144229602
 366    0.0019510363541053
 Sym= A
 Ene=              55
 Spin= Alpha
 Occup=    1.00000
   1    -0.071485214962752
   2     0.034411631692699
   3     -0.22557866404386
   4     0.018856946446894
   5    -0.0022811154465843
   6     0.029080734592238
   7     0.028673877202848
   8    -0.0092567852117952
   9      0.23029148581389
  10      0.13049009484592
  11    -0.057671005050435
  12    -0.015328588158062
  13    -0.0051112944927153
  14    9.0846164303612e-05
  15    0.00026929654817959
  16    -0.0011778680804854
  17     0.001084025242284
  18    -0.00053289743858457
  19    -0.0015136099315559
  20    -0.00097397408528979
  21    0.00093396830748667
  22    -0.0014710159634055
  23    0.00088787678483992
  24    0.00099588633419391
  25    -0.00031575063151908
  26    -3.8956701928026e-05
  27    -0.0002656188599384
  28    -0.00092393089613275
  29    -4.8361260771256e-05
  30    3.8943947340453e-05
  31    -6.8504554166897e-05
  32    0.0096237856554404
  33     -0.14541415597934
  34      -0.1667261584744
  35    0.0064421601918444
  36    0.00068388399551301
  37    -0.043945924558714
  38     0.020798533109066
  39     -0.11947080699656
  40     0.047129163832775
  41     -0.23772404366199
  42      0.24343051139489
  43    -0.015007770107484
  44     0.011032675437424
  45     -0.02049420431586
  46    0.00051931414815515
  47    -0.00022939124721709
  48    -0.00062014700452815
  49    0.00045865217279422
  50    -0.00016154006708347
  51    0.00044780662730174
  52    -0.001247253002829
  53    0.0005992296231363
  54    -0.00055850820564312
  55    -0.0010683924249695
  56    0.00022620330921049
  57    0.0014576446672086
  58    0.0012872105702285
  59    -7.9280976196153e-07
  60    -0.0011705673872041
  61    -0.000756161822664
  62    -0.0013154010199686
  63    -0.055573124117813
  64    -0.00014191612554614
  65    -0.0086154840655974
  66    0.0021535665126858
  67    -0.0021581731493994
  68    -0.0031032556773704
  69    0.0070856094767138
  70    -0.0040372504903702
  71    0.00039611711877479
  72    0.00022569818923897
  73    -0.00036494015985366
  74    -0.00037497552749758
  75    0.00066796564713998
  76    -0.00013908350265517
  77     -0.23218586133462
  78    -0.051252003764371
  79    -0.0024181204243268
  80     0.079004064099114
  81    -0.028557089860244
  82    -0.00033198600232313
  83    -0.045319093605718
  84     0.013272326181245
  85    -0.0010671531280553
  86    -0.0006644895074656
  87    0.0010292656865668
  88    -2.5885916500557e-05
  89    -0.0024479202916124
  90    0.00083389903041495
  91    -0.075302456879529
  92    -0.010964707265546
  93    0.0060651620143259
  94    -0.0026834930518981
  95    -0.0063889592334735
  96    -0.040347561155029
  97    -0.0088709688660263
  98    -0.00090693663543577
  99    -0.00067605750731217
 100    0.0063539761780089
 101    0.0041219864160957
 102    0.0012116717216548
 103    -0.0030896072516953
 104    0.0020828700688728
 105    -0.00010771485342238
 106    -0.068652311158237
 107     0.011753983155682
 108    -0.0031153006282718
 109     0.071675790457795
 110      0.02953788536172
 111     0.022847959017807
 112    -0.033696504971341
 113    -0.017080728459598
 114    -0.013256262277686
 115    0.0019000069115974
 116    0.0012464439745646
 117    0.0013068665183092
 118    -0.00068412983098887
 119    -0.0030903468789788
 120     0.031163615704456
 121     0.010172138209579
 122    0.00021154725710619
 123    -0.0035261294067527
 124    -0.0010687988361402
 125     0.037128979434161
 126    0.0075981933013832
 127    -0.002363338187745
 128    0.0010020225347411
 129    0.0035143944326951
 130    -0.060555539395244
 131    -0.012461001473777
 132     0.004011103367339
 133     0.003048103626066
 134    -0.0013613657582439
 135     0.040099810131065
 136    -0.055441658637597
 137    -0.023052994709103
 138     0.051819142083635
 139     0.046448196775202
 140      0.05624658711746
 141    -0.024976273886113
 142    -0.029018266342978
 143     -0.02457187384077
 144    -0.002538076146177
 145    -0.0031686535599537
 146    0.00018220593751951
 147    -0.0021923260218808
 148    -0.00041219982780169
 149     0.025802418456054
 150    0.0062070324543048
 151    -0.0024585059853596
 152    0.00099532950138183
 153    -0.0016850283722979
 154    -0.0010386309794681
 155    0.00067096706505982
 156    -0.0026544557762252
 157    -0.0016430408177527
 158    -0.0016953160065865
 159    -0.088635503993029
 160    -0.014448312839981
 161    0.0061821348409276
 162    0.0006310223963659
 163    0.0060619792665501
 164     0.077444877093656
 165     0.029868619228587
 166    -0.019709859517486
 167     0.045858752485454
 168    0.0075970455312761
 169     0.021216964361017
 170    -0.038360149146148
 171    -0.0063288877880229
 172    -0.018045342677092
 173    7.8643629198042e-05
 174    4.4892308849962e-05
 175    5.4116555948633e-05
 176    -0.00026710313694286
 177    -0.00063953544036717
 178     0.019232688788217
 179     0.004547130791746
 180    0.00033475173074523
 181    0.0019430315120871
 182    -0.0026011369796992
 183     0.026102023623148
 184    0.0032684873233236
 185    -0.0012958254088938
 186    0.0018665751669136
 187    0.0030942033882776
 188     0.029667754463411
 189     0.001239016784773
 190     0.001290525922592
 191    -0.0036233506708254
 192    -0.00012473332559735
 193     -0.16809586537665
 194    -0.070413544149213
 195    -0.031253498665916
 196    -0.028217863353837
 197    -0.052704040215313
 198    0.0057861931793681
 199     0.023125799959386
 200      0.02566979573326
 201    -0.0069698793456776
 202     0.001656848516073
 203    -0.0011922388725053
 204    -0.0014518803754457
 205    0.00070861936632881
 206    -0.000891876269723
 207    0.0030429286701591
 208    0.0042051746016562
 209    0.00070437950461422
 210    0.0026623926826701
 211    -0.0011814389709423
 212    -0.068002749612637
 213    -0.0088018882064094
 214    -0.0049531079217998
 215    -0.0059258883385766
 216    -0.0028348626461566
 217    -0.028100435352318
 218    -0.001898932668451
 219     0.004259489360308
 220    -0.00047860263091783
 221    0.0027733991931384
 222     0.066369140894611
 223     0.032693727431891
 224     0.032442773908517
 225    -0.024244309706888
 226     0.013053581152353
 227    -0.099001612518688
 228     0.023709848653573
 229    -0.0032451738633482
 230     0.061845927517948
 231    -0.0029524361035839
 232    -0.0032771951906757
 233    0.0015944151267261
 234    0.00010124776671841
 235    0.00012600244199078
 236     0.021070373995306
 237    -0.00060055830296863
 238    0.00052065434122655
 239    0.0021621464187789
 240    0.0027616607775787
 241    -0.070780463881654
 242    -0.016938460740445
 243    -0.002231965819087
 244    0.0019413595341091
 245    -0.0044154983417565
 246      0.04245935618568
 247    0.0046449168406624
 248    0.0047645358383832
 249    -0.0015458875868817
 250    -0.00030581149906983
 251     -0.25091928066455
 252     0.026489913743599
 253    0.0099953380054495
 254     -0.11375334929292
 255     -0.01813686582188
 256    -0.022830281942139
 257     0.066168005226651
 258     0.011183541873614
 259     0.011722235714331
 260      0.00164608894168
 261    0.0014896056706855
 262    0.0010159420527547
 263    -0.00037574625760128
 264    -0.005803340889095
 265     0.032105000798049
 266    0.0060969044544606
 267    0.0035179304659572
 268    -0.0011486402580911
 269    -0.0025286756016312
 270     0.067335629688936
 271    0.0091671216912738
 272    -0.0022849237954304
 273     0.005429969149929
 274    0.0010070394974221
 275    -0.080686777377595
 276     -0.01458336033544
 277    -0.0047829120354735
 278    -0.0047998990645074
 279    0.0012101695807462
 280     -0.33769983044479
 281    -0.023887018788347
 282    -0.051078842948043
 283    -0.029105779457899
 284     -0.10977453602152
 285    -0.025016625101704
 286     0.033206124038288
 287     0.061258147775768
 288     0.022353358769299
 289    0.0026298291653794
 290    -0.001222925959947
 291    0.00057182380271068
 292    -0.0012994223664465
 293    0.0036911772034736
 294      0.04342377106337
 295     0.011757525620214
 296    8.9693139795522e-05
 297    0.0017261881243275
 298    -0.003967817820226
 299     0.045258597073544
 300     0.012860344087776
 301    -0.0017895336854749
 302    0.00026508925651512
 303     0.003713827288497
 304    -0.068371337983367
 305    -0.005536127459409
 306    0.0059730007923787
 307    -0.0033232052765028
 308    0.00092854210791056
 309      0.21343878877735
 310    -0.025140050265228
 311    -0.023064348620832
 312    -0.017777872610631
 313     0.046260294413463
 314     0.049866611212991
 315     0.012701781768751
 316    -0.019138005075558
 317    -0.037217795334698
 318    0.0011800906638169
 319    -0.00034228910726773
 320    0.0002504265469557
 321    0.0030810006000135
 322    0.00088383519623482
 323    -0.052423929644994
 324    -0.0089353811723241
 325    -0.00091116778576071
 326    0.0045283111901418
 327    -0.00031949387138443
 328      0.02378365227938
 329    0.0018238949646708
 330    0.0028413471366464
 331    -0.00096037826646988
 332    0.00075777502398821
 333     0.026209035541817
 334     0.004028286934294
 335    -0.0024769835143557
 336    -0.0016801929214924
 337    -0.00037205655854951
 338     -0.10803871573424
 339    -0.0017379211572524
 340    -0.015236118642968
 341     0.027655109563717
 342    -0.032114446894648
 343     0.045175128658481
 344    -0.019089651696117
 345     0.018703030560347
 346    -0.017183076123825
 347    -0.0014240103234604
 348    0.0020754814431662
 349    -0.00045802912840187
 350    0.0003609051319218
 351    -0.0011789311922142
 352    -0.0035791792811315
 353    0.0011319708647109
 354    -0.00040782689355733
 355    0.0017583227115594
 356    -0.0018593440753965
 357    -0.036449906839258
 358    -0.0076691328333699
 359    -0.0028954251493435
 360    -0.00049980903235192
 361    0.0025794003732324
 362     0.044704123650324
 363     0.008286474342309
 364    0.0036748144586078
 365    -0.0014885632954471
 366    0.0006359221894726
 Sym= A
 Ene=              56
 Spin= Alpha
 Occup=    1.00000
   1    -0.036514975274086
   2     0.048149984535913
   3     -0.15733260332882
   4     0.022651035223607
   5    -0.0056509388842726
   6     0.055133600900392
   7     0.047826597410871
   8    -0.043387239624694
   9    -0.022073175815887
  10     -0.17087804422358
  11     0.087399295779008
  12    -0.010497665835644
  13     0.028840799478111
  14    -0.011737293997755
  15    -0.00064153345310238
  16    0.0011242263701248
  17    -0.0017847452332051
  18    -0.0011182707858546
  19    0.00031260706156506
  20    -0.0012351391093201
  21    0.00083782576189808
  22      -0.0010448684913
  23    0.00041008283571923
  24    6.9322690010632e-05
  25    -0.00016090648017141
  26    -8.2195594884169e-05
  27    -5.998863147203e-05
  28    -0.00083930829518387
  29    -0.00066743006555448
  30    -9.8023758380331e-05
  31    9.0522591281467e-05
  32     0.012371390477387
  33    -0.096673899933626
  34      0.19911667673932
  35     -0.05265637293164
  36    0.0086503466857245
  37     -0.04997412942893
  38    -0.023779716445494
  39     -0.08630752849872
  40      0.12706736722916
  41     -0.03576851433349
  42      0.22038623239093
  43    -0.0055130145510884
  44    -0.0072981310230584
  45    -0.0006915720255936
  46    0.0018897972295707
  47    -0.00014770434051741
  48    -0.00053116236166725
  49    0.00047706355816328
  50    0.0014620248301315
  51    0.0024704569602699
  52    -0.00042362016909153
  53    -5.1675479822763e-05
  54    0.0012728255739046
  55    0.0012257543495227
  56    0.0006337779968178
  57    0.00071561732743932
  58    -0.00011580713514307
  59    0.00060659343280663
  60    0.00094801194543064
  61    -0.00079892941980971
  62    -0.00060498493776855
  63    -0.071267467046035
  64     0.018514048946419
  65     0.014544845803001
  66     0.002339176573206
  67    0.0037497552939857
  68    -0.011512832377011
  69    -0.0006516623442065
  70    0.0098513614680085
  71    -0.003780542372794
  72    0.00038102895802678
  73    -9.9328738197375e-05
  74    0.00063526688957162
  75    -0.00031534814175466
  76    0.00020289766094963
  77     0.038199603008553
  78     0.039208054334544
  79    -0.0057878912371226
  80    -0.018315866659913
  81     -0.09747455905327
  82     0.010042205120302
  83      0.01949916087485
  84     0.055719673564432
  85    -0.0020093220300205
  86    -0.0024250282690237
  87    -0.00023962940513311
  88    0.00034947346370762
  89    -0.0031966051366786
  90    0.0011605817005643
  91    0.0025388540001544
  92    0.00028346532717741
  93    -0.0005843884226001
  94    0.0036889050216158
  95    0.00028112022844664
  96    -0.013481845001386
  97    -0.0053406463880912
  98    0.00086423249383106
  99    0.0032199308164018
 100    0.00050862596593085
 101     0.092603485220683
 102     0.013401099656068
 103    0.00023785121675431
 104    -0.0090420365718211
 105    -0.00021784408943609
 106    -0.041698428386011
 107     -0.15640014603169
 108    -0.069242676435051
 109     -0.04185677190378
 110    0.0078656030164229
 111    -0.068017738114135
 112     0.021985487746667
 113    0.0052572164501718
 114     0.023008881309124
 115    -0.0019767021148136
 116    -0.00081922626686961
 117    -0.00059080055387586
 118    0.00063979338623184
 119    0.0020275520814419
 120    -0.076434467864521
 121    -0.011643980918357
 122    -0.0075945519618262
 123    0.0066981085216086
 124    0.0038675400086749
 125    -0.098697465138344
 126    -0.0091959926313949
 127    -0.00038155205666739
 128    -0.007720305642833
 129    -0.010485703002067
 130    -0.024803292718266
 131    0.0051541378270309
 132    0.0065905208824997
 133    0.0023536982651447
 134    0.0029348507786777
 135     0.069191199661197
 136      0.12676428162596
 137     0.055278937902653
 138     0.049151275195395
 139     0.031722066139661
 140    -0.021036315546768
 141    -0.023814044729462
 142    -0.012612166192551
 143    0.0014458089020968
 144    -0.00044844345020467
 145     -0.00213715463341
 146    -0.00050321945736974
 147    -3.7055388157151e-05
 148    -0.00024412398025211
 149     0.054797794458466
 150    0.0025526831530261
 151    -0.002865338055304
 152    0.0073916507990739
 153    0.0031628952582736
 154     0.082434092021004
 155    0.0086702074504499
 156    0.0096507617890897
 157    -0.0019847634165104
 158    -0.0039305005833007
 159     0.017768008621377
 160    -0.0051796790360196
 161    -0.0052034679013553
 162    -0.0024948381919046
 163    -0.0013574018563014
 164     0.056541020614017
 165    -0.057104697265001
 166    -0.0071399331288474
 167    -0.040629703898471
 168     -0.16096807595839
 169     0.093210122458074
 170     0.025830136423571
 171      0.08324122151994
 172    -0.051331824235733
 173    -0.0011686844382831
 174     0.003982353659299
 175    0.0032269015477932
 176    0.00067461160199643
 177    -0.0069963261780719
 178     -0.16400341215833
 179    -0.030926271794084
 180    -0.0082748438688831
 181    -0.0085235663651691
 182     0.010606574985914
 183    -0.012498138603966
 184    -0.00059941860848409
 185    0.0014050701858689
 186    0.0044394615350717
 187    -0.0056438483741835
 188     0.074913317533311
 189     0.016010290869268
 190    0.0068821257612799
 191    -0.00065298961447842
 192    -0.0021875371097687
 193    -0.019415242932386
 194    -0.014233037252392
 195    -0.0056255009003289
 196    -0.016427875533893
 197    -0.022817006293878
 198     0.033946291516011
 199    0.0085645351356081
 200    0.0078221678797643
 201    -0.018162852979167
 202    0.0011282778974279
 203    -0.0013358520616673
 204    -0.00073927654236608
 205    0.00043436634353071
 206    -1.2459260471311e-05
 207     0.030741749204744
 208    0.0064215725116216
 209    -0.00092974937434579
 210    -0.00018558905627705
 211    0.0024113564401901
 212    -0.021580667587946
 213    -0.0044422020926349
 214    -0.0011760423045013
 215    -0.0012602683984546
 216    -0.0020982501533761
 217    -0.016484649460334
 218    -0.0027167601144057
 219    0.0025506150877959
 220    -0.00020078634717113
 221    -0.00029216147466371
 222     0.077836179727433
 223       0.0816399051019
 224    0.0097410752403341
 225       0.1155072621436
 226    -0.012303261466812
 227    -0.018038768047607
 228    -0.066794496776859
 229    0.00068947901578894
 230       0.0102244357958
 231    0.00022493436355885
 232    -0.001934899924052
 233    0.00032976565892079
 234    0.0027238616070738
 235    -0.0011830256404577
 236     0.011737379167465
 237    -0.0031293902875793
 238    -0.0041184141310271
 239    0.0037828119382922
 240    0.00028507508737959
 241     0.040965895099797
 242    0.0056377991853114
 243    -0.002591945197414
 244    -0.0021006059165571
 245    0.0073197315137293
 246      0.10707732258045
 247     0.018568229520231
 248     0.008362465767335
 249    -0.0032085043989181
 250    -0.0088860443060079
 251     -0.12796811988171
 252    -0.015850183584311
 253    0.0035846422775963
 254     0.036694856872111
 255     0.021183087553012
 256      0.04917068311285
 257    -0.018496231874397
 258    -0.0060465200020451
 259    -0.031317012313247
 260    -0.0022393173244864
 261    -0.00078263145908554
 262    -0.0013083978503565
 263    0.0002943565116511
 264    0.0019438202919928
 265    -0.051754257562253
 266    -0.0063407282298315
 267    -0.0010649003328731
 268    0.0026865069582595
 269    0.0045912025285314
 270    -0.017740174577934
 271    -0.00033455101747249
 272    0.00073161078547644
 273    -0.0026045392794893
 274    -0.002249299577027
 275     0.029022432485694
 276    0.0090158131918785
 277    0.0012004598162447
 278    0.00073697233010191
 279    -0.0019258943431665
 280    -0.097789602881757
 281     -0.14261628414807
 282    -0.030610388515065
 283     0.081555785943275
 284      0.05214999048915
 285    -0.096973524914581
 286    -0.046535374523829
 287    -0.029186845726356
 288     0.054887646746019
 289    0.0021304769970065
 290    0.0024448523563226
 291    0.0044910434832155
 292    -3.2745006617073e-05
 293    -0.002283086314369
 294    0.0084293813092696
 295    0.0093614265022742
 296    -0.0033638034958735
 297    -0.0011460830543978
 298    0.0042898634015158
 299     -0.15029916481254
 300    -0.021198103959511
 301    0.0060396736894967
 302     0.012873168378144
 303    -0.0093465293788353
 304    -0.050059049394786
 305    -0.0011195377606194
 306    0.0021591897733696
 307    -0.0086999701256675
 308    0.0032639653058055
 309    0.0027211338474301
 310    -0.060283608068362
 311    -0.034015718131266
 312    0.0079024888029468
 313     -0.11840335682964
 314    -0.029774834556861
 315    -0.0004730877987362
 316     0.073123904212777
 317    0.0076162816091747
 318    -0.0029852284509917
 319    -0.00066028629011303
 320    0.0003148342272598
 321    -0.0046937434027994
 322    -0.0017270271950619
 323     0.079606321155816
 324     0.017700996777975
 325     0.001178877570088
 326    -0.0058423144438835
 327    -0.00068900181394505
 328     -0.05730280227643
 329    -0.0079713978966617
 330    -0.0052604153802897
 331    0.0029389379042433
 332    -0.0041103006754283
 333    -0.041101143240479
 334    -0.0043461645404985
 335    0.0042538354528253
 336    0.0036751345476814
 337    -0.0011347930083748
 338    -0.036567462529312
 339    -0.096007025840662
 340    -0.050227737051617
 341     0.010416635444661
 342     0.023077852310612
 343    -0.075505674656258
 344    -0.0093014082998933
 345    -0.0012226691518773
 346     0.050706391531897
 347    0.0019164963357834
 348    -0.0023781911335402
 349    -0.00071946306984885
 350    0.00019934482988191
 351    0.0012053854258527
 352    -0.036199223586707
 353    0.0003975583452036
 354    0.0033678505722009
 355    0.0030197726274104
 356    0.0034577317636831
 357     0.031589838027005
 358     0.012236137672692
 359    0.00084620863713185
 360    -0.00071306470879029
 361    -0.00084087690212882
 362     -0.06112335896806
 363    -0.004062000115562
 364      -0.0071756306608
 365    0.0026546043064392
 366    -0.0016862726855743
 Sym= A
 Ene=              57
 Spin= Alpha
 Occup=    1.00000
   1     0.032209554459002
   2    -0.036709146340894
   3      0.27940361274972
   4    -0.036218093460619
   5    0.00021972504493093
   6    -0.072703646549793
   7    -0.024948862829258
   8     0.057341811107842
   9      0.16166553630908
  10    -0.054318971889589
  11       -0.212813379633
  12    0.0045423938118972
  13    -0.014139491469228
  14     0.035985299314095
  15    -0.0014065981743441
  16    -0.0016061962538879
  17     0.002333286412075
  18    -0.00076739019292764
  19    -0.0031311354640994
  20    -0.00077803620713331
  21    -0.00033332807590775
  22    -0.0017188891093443
  23    0.00012161939353137
  24    -0.0011185636226133
  25    -0.00031654598332978
  26    -0.00051657458186154
  27    -0.0028448260727907
  28    -0.0015951497120924
  29    -0.00087705187075187
  30    0.0012046557613047
  31    0.0012735150764256
  32    -0.022931780564263
  33      0.13528515208286
  34     -0.20857034349763
  35     0.029890443980306
  36    -0.0030480110131716
  37    -0.059561916510278
  38    -0.032248815737627
  39     -0.11651581782993
  40      0.29278503374063
  41     0.067591955180354
  42       0.2878996803378
  43    -0.037028329209852
  44    0.0090708175171106
  45    -0.029464972224835
  46    0.00081101855509643
  47    -0.00097278623196742
  48    0.0024849178483438
  49    -0.0011256028236896
  50    -0.00077251104290273
  51    -0.00028132782056368
  52    0.00056690980556955
  53    0.00011465525023517
  54    -0.00086633193136732
  55    0.00028188268236902
  56    0.0012963303734084
  57    0.00057051638643731
  58    0.0011404664428739
  59    0.00089747640154095
  60    -0.00042227890010559
  61    -0.00073004875888616
  62    -0.0013437757499887
  63     -0.15398836955008
  64    -0.019378316406411
  65    -0.014905414609165
  66    -0.009840196108534
  67     0.005579350924821
  68    -0.0030292089770662
  69    -0.0038191968820245
  70    0.0046962393546005
  71    -0.0060795244155407
  72    -0.00012433557473619
  73    0.00022990780720254
  74    -8.8417452622972e-05
  75    -0.00011584969369256
  76    0.00013367645856414
  77     -0.22856670495826
  78     0.034199087088347
  79     0.023441111057208
  80    -0.022785806624004
  81     0.080255609880246
  82     0.035043786314575
  83     0.002940336971126
  84    -0.047494574873262
  85    -0.029926245500985
  86    0.00058244200477866
  87    -0.0019595448057876
  88    0.00037649183990645
  89    0.0035338944886153
  90    -0.0011682519452652
  91     0.056785723054992
  92     0.010055380326047
  93    -0.0044511341023399
  94    -0.00060204606305644
  95    0.0029453820243432
  96    0.0043081576469344
  97     0.001840598363817
  98    0.00046629997136992
  99    -0.0027132763780511
 100    -0.0015604707314023
 101    -0.057317466032669
 102    -0.010187051623653
 103    0.0014379424969694
 104    0.0046143603727239
 105    -0.00098255585324696
 106    -0.057673851660185
 107    -0.066785938017411
 108     -0.04480819616494
 109    -0.069020575606137
 110    -0.068080829093006
 111     0.048042820454305
 112     0.036193115190474
 113     0.050487866487261
 114    -0.040378927857348
 115    -0.001214700814899
 116    -0.00070979389907666
 117    -0.00069900203888599
 118    0.00062097082371591
 119    0.0027781594247848
 120     -0.03163722691263
 121    -0.0049357005839407
 122    -0.00086748808417793
 123    0.0046195593634038
 124    -0.0012531027180727
 125    -0.020921933857399
 126    0.0037671166689943
 127    0.0018395442272137
 128    0.00060209273323168
 129    -0.0036469234377998
 130     0.055994253551054
 131      0.01755806909214
 132    -0.0035278669750946
 133    -0.001739009747823
 134    -0.00021687389423073
 135     0.019745635127829
 136     0.084175980635035
 137     0.059633613457198
 138    -0.033314808414299
 139    -0.054915033995026
 140     0.021673190714134
 141      0.02081464797904
 142     0.040413887035247
 143    -0.031080777714427
 144    0.0012287507500834
 145    0.0014153597067606
 146    -0.00011497551851457
 147    0.00083175761003165
 148    0.00044430686962748
 149    -0.0098338613268558
 150    -0.0066023765143922
 151    0.00083772895780595
 152    0.00091411915421693
 153    -0.00018953261839245
 154    -0.00049696711419207
 155    -0.0076337943657829
 156    0.0018249212145935
 157    0.0010198126658698
 158    -0.00012141870779373
 159     0.044125807931833
 160    0.0023777441023677
 161    -0.0033445139841147
 162    0.0007583648027414
 163    -0.0045538316930692
 164     0.071828157529234
 165    -0.034174584596631
 166    -0.019423930442354
 167     0.010318632864267
 168      0.05654909318838
 169     0.054977592180718
 170    -0.0093691746042094
 171    -0.031480572551533
 172    -0.036500852817463
 173    0.0021473611865266
 174    0.00058019015666076
 175    0.0024655231919437
 176    -0.00032004924436991
 177    0.00086196635514599
 178    -0.0072970278577981
 179    0.0011856431998262
 180    -0.00051628620022057
 181    -0.001942951534916
 182    -0.0016150502950262
 183     0.050399788991499
 184     0.013255903292863
 185    -4.7539152661294e-05
 186    0.0010709745397647
 187    0.0041287422152927
 188    -0.035321742154978
 189    -0.002024324604882
 190    -0.0033482398402857
 191    0.0010228826000798
 192    -0.0019780440641346
 193    -0.00014488116215204
 194    -0.060614082142334
 195    -0.0089651939827513
 196     0.055158752428392
 197    -0.0030148362962998
 198    0.0039312655079121
 199     -0.03260536669426
 200    0.0066639833408944
 201    -0.0059480488428413
 202    5.1974934543145e-05
 203    -0.00050100915150583
 204    0.0016300240876461
 205    -0.0010217773152309
 206    0.0020062091117103
 207    -0.033401302194536
 208    -0.0014501541732321
 209    0.00064367959890623
 210    0.0014480496389728
 211    -0.0045733247548661
 212     0.009090354353454
 213    0.0073818798989545
 214    -0.0018698454866345
 215    0.00030682645437702
 216    0.00041760401787617
 217    -0.054512615584789
 218    -0.0050926191274833
 219    0.0036528365428537
 220    -0.0030693512596078
 221    0.0038016181906759
 222      -0.1263599226003
 223    -0.093290121050062
 224    -0.048695827785501
 225    -0.050979170403843
 226    -0.040389444748842
 227      0.03022609540125
 228     0.016979680185809
 229     0.014722171458709
 230     -0.01814787867193
 231    0.0016566079077996
 232    0.0011883209706157
 233    -0.0006927293171241
 234    -0.00049102826202953
 235    -0.00032377640833575
 236    -0.062762411254914
 237    -0.011164031602895
 238    0.0021432384609221
 239    -0.0085091209889486
 240    -0.0011901482719155
 241    -0.0079584395565645
 242    0.0020458488602307
 243     0.001658180993168
 244    0.0027600055297612
 245    -0.003567704115609
 246    -0.068062403650766
 247    -0.0077966544147158
 248    -0.0060023639390938
 249     0.004590508978587
 250    0.0054830865157371
 251      0.13059598973555
 252     0.043665954103512
 253    0.0068068829623343
 254     0.089267259598983
 255    -0.015616293040999
 256    -0.083754162872698
 257    -0.043118227614668
 258    0.0079968185758731
 259     0.050467663681432
 260    0.0026899109326934
 261    -0.00068788836423286
 262    0.0010991093968289
 263    -0.00032481767465133
 264     0.004333819758268
 265     0.075944083036279
 266     0.012005627265746
 267    -0.0039634809162928
 268    -0.004322887037533
 269    -0.0071675126430166
 270    -0.054095112296718
 271    -0.010885792646132
 272    0.00070532782419049
 273    -0.0032649887752071
 274    0.0025569773627898
 275     0.070785390660952
 276     0.010661999782334
 277    0.0056334498675782
 278     0.006292950660493
 279    0.0023579328802956
 280     0.035995616693072
 281     0.034864524620501
 282     0.028620917529068
 283    0.0010510998287639
 284     -0.03654070848497
 285    -0.004881964784515
 286    -0.0042750616487151
 287     0.014237687388285
 288    0.0038715591077126
 289    0.00078985562417306
 290    0.00011100683605649
 291    0.00031798793934952
 292    9.8756895840962e-05
 293    0.0012302319533306
 294     0.026671585605111
 295    0.0030949354451997
 296    0.00022846486563353
 297    -0.0003871941648676
 298    -0.0035359232292196
 299      0.02827938816617
 300    0.0024339011424793
 301    -0.0018874408607181
 302    -0.0015500855798683
 303    0.0028727537836966
 304    -0.013599488656488
 305    -0.009499491753464
 306    0.0010993854425579
 307    0.00067039441691246
 308    0.00039683623696757
 309      0.26487977103027
 310    -0.086934562648026
 311    -0.010970482029428
 312     0.058044105240923
 313    -0.014563341026356
 314     -0.11629769747634
 315    -0.027059249844695
 316    0.0092132058344245
 317     0.069527727914756
 318    -0.0015068921004398
 319    0.0011536913934623
 320    0.00043752970549613
 321    -0.004143993047957
 322    -0.0012065628483792
 323     0.018062421611758
 324    0.0049712139399293
 325    -0.0023147773755471
 326    -0.00082676376475805
 327    0.0038171573842989
 328    -0.060867645785069
 329    -0.0092061315935111
 330    -0.0079055684428028
 331    -0.001260149987066
 332    -0.0019827975359305
 333     -0.10687188276164
 334    -0.018526185078892
 335     0.010960290063379
 336    8.1091458759123e-05
 337    -0.0021930375931525
 338    0.0050367583366141
 339    -0.077453106833359
 340    -0.027584257894865
 341     0.040248535128802
 342     0.054536990402633
 343     0.055784851346955
 344    -0.019634853248604
 345     -0.02535986064403
 346    -0.024619452388245
 347    0.00054331991496132
 348    -3.9893012725716e-06
 349    -0.001594227251349
 350    0.0014157324585552
 351    -0.0024941806123909
 352    -0.089393464215544
 353    -0.013103235508604
 354    0.0061773172044573
 355     0.008092387580601
 356    0.00087551988876555
 357    -0.033803691254233
 358    -0.0012255700124696
 359    -0.0040066076341494
 360    -0.0042094298251159
 361    0.0028573341995897
 362    0.0071321528625169
 363    0.0053834041790985
 364    -0.0014130675637982
 365    -0.0022679112795938
 366    -0.0025731053066705
 Sym= A
 Ene=              58
 Spin= Alpha
 Occup=    1.00000
   1     0.011042778339826
   2     0.063084372699961
   3    -0.039457289203157
   4     0.056311045831706
   5    -0.0067070702457129
   6     -0.10369115716561
   7    -0.068211846181054
   8    -0.022402779500141
   9      0.21966176465146
  10      0.11332435742048
  11     0.087697203814961
  12    -0.030334422545585
  13    -0.012404098547497
  14    -0.046732225506895
  15    0.00048499808198954
  16    -0.00075487384468401
  17    0.00028560480111851
  18    -0.0003811305293391
  19    -0.0003578757313424
  20    0.00059683386676617
  21    0.0026136482512493
  22    -0.0026284546514021
  23    0.0016986196879412
  24    0.0038429654538619
  25    0.0014135068865732
  26    0.0012063890737281
  27    0.0024026391356371
  28    -0.0005237354276022
  29    -0.0019771576871527
  30    -0.001371018225836
  31    -0.0029024162285316
  32    -0.014490376903356
  33      0.10812737174194
  34     -0.07138485040646
  35     0.045834256679129
  36    -0.0013855289436258
  37    -0.080012260195139
  38     0.058380924112479
  39    -0.043654908951924
  40      0.27616144538176
  41     -0.14676945485755
  42      0.15665215731097
  43     -0.02855235650218
  44     0.021479096155177
  45     0.012991364486521
  46    0.0003411933875885
  47    -0.001456580299768
  48    0.0016564440117671
  49    -0.0012866068282904
  50    -0.0013594670480564
  51    0.0031171035270953
  52    0.0021104466868821
  53    -0.0014461717057811
  54    0.00054382350587787
  55    0.0040749231969815
  56    -0.00057126542584751
  57    0.00015791472934285
  58    -0.00044981529233083
  59    -7.4791152009345e-05
  60    0.00012317370116548
  61    -0.00013848699812488
  62    0.00087379819288672
  63     0.088785316721546
  64     0.065827940422071
  65     0.074465662069257
  66    -0.0011592216027266
  67    -0.0022550854432575
  68    -0.0008338014657442
  69    0.0061414347521669
  70    -0.00082290702687216
  71    0.0066302303468223
  72    0.00061621043074394
  73    -0.0014309957440844
  74    0.0021448127594934
  75    -0.0008092510971215
  76    -0.0011952890561388
  77     0.099369051020331
  78    -0.0069658616040036
  79    -0.017654417894538
  80    -0.053103125727502
  81    -0.060604462137364
  82     0.051761605078537
  83      0.03990228407206
  84     0.038731892856538
  85    -0.021155346205385
  86    -0.0027953146483389
  87    -0.0017248375231464
  88    0.0010131672567812
  89    -0.00067504907553592
  90    0.00046198915161923
  91     0.039622942950064
  92    0.0097510101661506
  93    -0.0032713694629968
  94     0.003574964452279
  95    0.0011078113506869
  96    -0.045229356731749
  97    -0.0076775673383619
  98    0.0033708634544622
  99    0.00035325321154415
 100    0.0029724028528312
 101     0.049442826830267
 102    0.0064486127398911
 103    0.0014761392237971
 104    -0.0047131722307212
 105    -0.0025024302776577
 106      0.01072072760324
 107      0.14527447810528
 108     0.086134208624714
 109     0.034572108704002
 110     0.088052029948105
 111    -0.035486695773587
 112    -0.015592057495715
 113    -0.065320615554557
 114     0.044270444531544
 115    0.0019081287266724
 116    0.00053119016534487
 117    0.00032944521155804
 118    -0.00063056943934144
 119    -0.00089582431881728
 120     0.022814205989187
 121    -0.0086903578972039
 122    0.0013826685227216
 123    -0.0052085098636443
 124    -0.00044640190338559
 125     0.057894912368866
 126    0.0019534531489169
 127    -0.00071241250098988
 128    0.0015116715947222
 129    0.0083630008637645
 130     -0.01615592466078
 131    -0.010075108350852
 132    -0.00031168675148833
 133     -0.00179418102168
 134    0.00012494564398935
 135      0.02479348589084
 136      -0.0290890905359
 137    -0.024930405746008
 138    -0.061095165255016
 139     0.033511984330469
 140    -0.019561764569293
 141     0.035018552194856
 142    -0.020391462188156
 143     0.024017914126369
 144    0.00059388989088268
 145    0.0032294554207226
 146    0.00036336148064014
 147    -0.0013366067160545
 148    -0.00026209504680836
 149     0.020159808162278
 150    0.0055526895024488
 151    0.0014706608487382
 152    0.0017374997883019
 153    0.00067497244151183
 154     -0.04996140213203
 155    -0.0094709355232833
 156    -0.0037136416523264
 157    -0.00091374155793777
 158    0.0028722195172434
 159      0.02978408897833
 160    0.0080686106414794
 161    -0.00046232288477903
 162    -0.002113916298883
 163    -0.0017606261348475
 164    0.0063140879026583
 165       0.1426435395773
 166     0.088199701033073
 167     -0.11042523221134
 168     0.021394672899649
 169    -0.012086594654439
 170     0.086211235254584
 171    -0.0020916168850751
 172     0.016563715504436
 173    0.0012349841214713
 174    -0.0004989705921571
 175    0.00077206978068431
 176    -0.00028054933866943
 177    0.0024929049929028
 178     0.026977478787164
 179    -0.0053616778301302
 180    0.0044261939437839
 181    0.0014840421151323
 182    -0.002745897800025
 183     0.046768269346861
 184    -0.0011200854597361
 185    0.0028206116324847
 186    0.0026383914523416
 187    0.0063405863427397
 188    -0.026290949931818
 189     -0.02119427946912
 190    0.0013999721903235
 191    0.00051138778519318
 192    -0.00068327847624478
 193      0.11161082897637
 194     0.022859035211601
 195     0.018565979841982
 196    -0.034022849037691
 197    -0.049588044918759
 198    -0.048749287986934
 199     0.021826528907972
 200     0.032779672148507
 201     0.034704928326708
 202    -0.00012059388674677
 203    0.00018940951333909
 204    -0.0014721629091031
 205    0.0012340102985047
 206    -0.0032504078247817
 207    3.2351260459578e-05
 208    -0.0030583264110683
 209    0.00060123741304532
 210    0.0015263030049971
 211    0.0013773565938755
 212    -0.046806878233875
 213     -0.01136325570804
 214    -0.0022413601809473
 215    -0.0027474542388425
 216    -0.0003958651021597
 217     0.033451540365277
 218    0.0043504016630494
 219    -0.0018966776004634
 220    0.0028769428900429
 221    -0.00049758439787267
 222     0.064729737702904
 223     0.075543816416827
 224    -0.0055298084986623
 225     0.095077815158592
 226    -0.030082928168357
 227    -0.043024755016213
 228    -0.060191126289372
 229    0.0068194240180302
 230     0.021011823448553
 231    0.00010323825510205
 232    -0.0023553523701432
 233    0.00056165543238527
 234    0.0030005783276935
 235    -0.0012233790204675
 236    -0.0043598514588122
 237    -0.0078790542564444
 238    -0.0032226470778406
 239    0.0017611959403273
 240    0.0016836884735287
 241       0.0216085225295
 242    0.0012142991821185
 243    -0.0023451673804234
 244    0.00020418417240557
 245     0.005189366766923
 246      0.10883590739637
 247     0.018100321485465
 248    0.0092470286607098
 249    -0.0022038169855296
 250    -0.0076352339803462
 251      0.25484785972209
 252     0.048790990718828
 253     0.065526432085266
 254    -0.0052708795266432
 255    -0.041731264406891
 256     0.082196563710932
 257    0.0090209806061106
 258      0.03733807267623
 259    -0.065363697433566
 260    -0.00087011214550327
 261    -0.00033010439356083
 262    -0.0012710052558106
 263    -0.00028357117303156
 264    -0.0003169439814869
 265     -0.02305980109504
 266    -0.0086028917674649
 267    -0.00031138047824171
 268    0.0020401668687777
 269    -0.00032995284973205
 270    0.0037036958088522
 271    -0.0088524255159126
 272    -0.00054326371954989
 273    0.0014714881365787
 274    -0.0024219585354446
 275    -0.0023740248144569
 276    -0.0043559129650758
 277    0.00030168168145336
 278    0.0012408828556017
 279    -0.0018256745280079
 280      0.17603656804837
 281     0.074425919791085
 282     0.082831505579113
 283      0.13629970439829
 284     -0.11712622599955
 285    -0.023018107043523
 286    -0.099766560040131
 287     0.047969936697762
 288    0.0038759021333548
 289    0.0041669197646704
 290    -0.00055860698232805
 291    0.0023663315618528
 292    -0.0008927139532194
 293    0.0064426520534748
 294     0.086933276685291
 295    0.0090484445207883
 296    -0.0041377764341225
 297    -0.00084520837969378
 298    -0.010042366185594
 299     0.035997656221847
 300    0.00050711125424685
 301    -0.0059383657169392
 302    0.0011603569325778
 303    0.0048405621367786
 304     -0.12011557377358
 305    -0.033399527479069
 306    0.0048846586756738
 307    -0.006286148902095
 308    0.0021121815698709
 309    -0.039587542767988
 310     0.072772265120197
 311    -0.001133285216844
 312     0.082593417142247
 313    -0.041149622545672
 314     0.048026480680903
 315    -0.036597138434225
 316     0.026734464783588
 317    -0.034955531465494
 318     0.001003871981956
 319     0.004009026713246
 320    0.00073350417380895
 321    -0.0013296571501904
 322    -0.000523078164481
 323     0.056474562840143
 324    0.0056048178421697
 325    -0.0019179050100879
 326    -0.0070368563736498
 327    -0.0032119813637957
 328     0.088242194168218
 329     0.014450866284674
 330    0.0047734983826866
 331     0.004496254030645
 332    0.0071321959726333
 333    -0.027683120931301
 334    -0.011245469799211
 335    -0.00067210366970445
 336    0.0013028618738504
 337    -0.002532350297284
 338     0.072114001648916
 339    -0.033698198228794
 340    -0.009167178975206
 341     0.050884568584164
 342     0.092802546975304
 343      0.03680489622907
 344    -0.027726678517279
 345    -0.052295734997658
 346     -0.01670711429011
 347    0.0011020868673436
 348    -0.001091245925483
 349    -0.0023092011456467
 350    0.0019555322396576
 351    -0.0032938365104074
 352     -0.09773452377692
 353    -0.016539905076631
 354    0.0063262002325432
 355    0.0071568400301795
 356    0.0018813936657656
 357    0.0054181020663604
 358    -0.00045767866658177
 359    -0.0021109143578237
 360    -0.0035217700328716
 361    -0.0013525261935136
 362    0.0093015422632351
 363    0.0026296897780618
 364    -0.001796013277997
 365    -0.0030809743255481
 366    -0.001042601727251
 Sym= A
 Ene=              59
 Spin= Alpha
 Occup=    1.00000
   1    -0.0063938293857463
   2     -0.16467670588805
   3      0.29994615635732
   4    -0.013296827606291
   5    0.00090002265240925
   6     0.012011900487753
   7     0.053706731101763
   8     -0.14447290142462
   9       0.2291936650603
  10     -0.11254379371209
  11      0.42792241680016
  12    -0.020649628867789
  13    0.0052482577003323
  14    -0.046261942433802
  15    -0.00046317673602008
  16    0.00073543220337647
  17    -0.0019211536030494
  18    0.00055201596221482
  19    0.00053908561573571
  20    -0.00014950526608418
  21    0.00014124897285681
  22    -0.0027473639131379
  23    0.0013409480090244
  24    0.00033895304867685
  25    0.00099054626299245
  26    0.0006828151177842
  27    0.0024330332030534
  28    0.0016470388121722
  29    -0.00081938926437989
  30    -0.00086106607428445
  31    -0.0014361859356744
  32    -0.041023489600675
  33     0.042092289475689
  34     -0.25071042675817
  35     0.056801070054258
  36    -0.0074842828493277
  37    -0.081907413225954
  38    -0.089706558726814
  39    -0.045075360255517
  40      0.25492636297266
  41     0.074139218937253
  42    0.0034393700180346
  43    -0.018902082382118
  44    -0.012972802826273
  45    -0.0090468057142479
  46    4.2626023805945e-05
  47    -0.002094759596744
  48    0.0036658154102136
  49    -0.001761455845855
  50    -0.0025478433474318
  51    0.00089798970616438
  52    0.0010797811570079
  53    -0.00013106958089129
  54    0.00067543937146419
  55     0.001882684092603
  56    0.00079176431692746
  57    0.00032213211202123
  58    -0.00024795335836868
  59    -0.00076145037949685
  60    -0.0009506446356964
  61    8.735237142605e-05
  62     -0.00115260674197
  63     -0.12695097644576
  64     0.038793624251465
  65     0.021050572301536
  66    -0.0079737471739031
  67    0.0081516740605336
  68    0.0033577512897914
  69    0.0038627700238907
  70    0.00013763096036634
  71    0.0062366550576218
  72    -0.0004209609550842
  73    -0.00025431134673322
  74    0.00059777541980884
  75    -0.00032315774776795
  76    -0.00064429464912387
  77     0.068965439372878
  78    -0.027948707392675
  79     0.020296122891258
  80    0.0058452160664488
  81      0.06705904437759
  82    -0.0017006171934125
  83    -0.015975453422871
  84    -0.043921791518408
  85    0.0023075708950852
  86    0.0016989715937308
  87    0.00036460638638936
  88    -0.00024405537191548
  89    0.0027666994696631
  90    -0.00066957368961364
  91    0.0062693203052826
  92    0.0017216154553966
  93    -0.0004676782168838
  94    -0.0014894340592853
  95    0.0002421553041794
  96    0.0066253501489038
  97    0.0043393960412595
  98    9.7403352225686e-05
  99    -0.0017726058219252
 100    -0.00045524661078124
 101    -0.062074023369308
 102    -0.0068953851481945
 103     0.000200923728599
 104    0.0055317225287961
 105    -0.0004889937226968
 106      0.10317347698695
 107     0.083204641689429
 108      0.04003801902263
 109    -0.072517495120211
 110    0.00035356530960145
 111    -0.024747062552015
 112     0.044240178345954
 113    -0.0045061913076958
 114     0.026568348457071
 115    -0.0010382071582375
 116    -0.00082806731414244
 117    -0.001051773433361
 118    0.00085126928756917
 119    0.0034021150341973
 120    -0.014747105193146
 121    -0.0075253129763229
 122    0.0017250351705704
 123    0.00076368475947006
 124    -0.00020199929339558
 125     0.004845675309722
 126    -0.004807025175785
 127    0.0020544238744491
 128    0.0015013954743727
 129    0.0019744588309826
 130     0.076579644902071
 131    0.0084307759097456
 132    -0.0065432136523357
 133    -0.0053406575477319
 134    0.0013234534928354
 135    -0.092345556045773
 136    -0.0084307573251451
 137    0.0038697487606228
 138     0.092595148840015
 139    -0.016976180709896
 140    -0.023135994121888
 141    -0.044129399914587
 142     0.014522568635509
 143     0.015177520464898
 144    9.826747293223e-05
 145    -0.0041307104712699
 146    -0.00090509114983998
 147    0.0024218561343108
 148    0.00049779414150157
 149    -0.029684470536835
 150    -0.002251391150265
 151    -0.0033191680062627
 152    -0.0032680963939276
 153    -0.00030454130311923
 154     0.075760778538795
 155     0.016034045632565
 156    0.0046519439097339
 157    -0.00044561270104265
 158    -0.003639682215482
 159    -0.043681369514669
 160    -0.0064539506983048
 161    0.00078007988502724
 162    0.0016601902329883
 163    0.0047454961323956
 164      0.12789977381863
 165       0.1009873666509
 166     0.027643452938594
 167     0.019501730480271
 168    -0.051045225968734
 169     0.087450856235774
 170    -0.0044721260207603
 171     0.024523682846257
 172    -0.040668113515773
 173    8.927157420596e-05
 174    0.0024184996820859
 175    0.0024903045929875
 176    0.00032557571145948
 177    -0.003278451224752
 178    -0.034984438260196
 179    -0.010064128048546
 180    -0.0025428349994751
 181    9.9274939077433e-05
 182    -0.0016655911166112
 183     0.076318978925628
 184    0.0094534904117966
 185    -0.0010043135329556
 186    0.0076948849317185
 187    0.0068563243893883
 188     0.087129506427282
 189     0.014551885212842
 190    0.0063450301827677
 191    -0.0081398518748621
 192    -0.0018293461974263
 193     -0.10596346670867
 194    0.0036746299455917
 195    0.0099499952220562
 196     0.068627875587279
 197     0.051096688522809
 198    -0.054512642084326
 199    -0.037319936447301
 200    -0.026699743344043
 201     0.041121337624354
 202    -0.0029850400818523
 203    0.0030364465548769
 204    0.0022909804305158
 205    -0.0014358735984232
 206    0.00099111734500342
 207    -0.072739526855371
 208    -0.013118893131831
 209    0.0011889876566609
 210    0.00065401858622572
 211    -0.0067941415827719
 212     0.055693753051241
 213     0.010350740390546
 214    0.0012574527570398
 215    0.0037304835459719
 216    0.0027562532219848
 217    -0.0040125238607477
 218    -0.00040538132632133
 219    -0.001259992555248
 220    -0.0020077129758524
 221    0.0021710144221811
 222     0.045408835577408
 223      0.11582478373463
 224     0.027448600112437
 225    -0.026060319282349
 226     0.059531537991061
 227     0.048595243842307
 228     0.014939921704034
 229    -0.031802203175283
 230    -0.025723868614188
 231    -0.00020434753749656
 232    0.0021710331577711
 233    -0.00036494254662153
 234    -0.0033018380777704
 235     0.000811150629669
 236     0.087840041869128
 237    0.0093004875908504
 238    0.00063205843602141
 239     0.010118751725899
 240    -0.0017738934367419
 241     0.053335784778589
 242    0.0040342673914516
 243    0.0032751883515427
 244    -0.0047432793115708
 245    0.0054352533353302
 246    -0.016168411487218
 247    -0.011460420562789
 248    -2.2372265118421e-05
 249    -0.0019929842976282
 250    -0.0014634754910312
 251     -0.17824178074116
 252    -0.0038133536478927
 253    -0.0057806327978793
 254     0.027386656724128
 255    -0.027422074901547
 256     0.023460743987141
 257    -0.011302586345753
 258     0.017765636162116
 259    -0.012168344679619
 260    0.00024044056267379
 261    -0.00035825716925719
 262    0.00038317482509541
 263    0.00010782127212988
 264     0.001354201578081
 265    -0.010617948152508
 266    -0.0041357672387337
 267    -0.0012749376274573
 268    0.0020592276115796
 269    0.0013401681424626
 270     -0.03507312462446
 271    -0.0043043170374032
 272    0.0028303823962046
 273     -0.00237294293107
 274    -0.001601024080537
 275    0.0035000759069147
 276    0.0013351243811193
 277    -0.0012841333541133
 278    0.00083010892749676
 279    -0.00097062758694411
 280     -0.10316083128177
 281     0.007710892025357
 282    0.0014465164992536
 283    -0.039740886389195
 284      0.10219376267019
 285     0.057552661138074
 286     0.022864163699358
 287    -0.054356609586887
 288    -0.031230668955879
 289    -0.0039531047178346
 290    -6.7269930312858e-05
 291    -0.0024828684839698
 292    0.00091879108088228
 293    -0.0037427238804288
 294    -0.078317733975712
 295     -0.01485936828069
 296    0.0014059318307685
 297    0.0012036828045003
 298    0.0073529846148813
 299    -0.011941052098913
 300    -0.0029706876126051
 301    0.0020550865566206
 302    -0.0022760392867305
 303    -0.0033544682228185
 304     0.083919757623437
 305     0.014452695395012
 306    -0.0054554521828795
 307    0.0038270084722191
 308    -0.0027744373053714
 309    -0.026947218828853
 310      0.13075045280694
 311     0.031946688156348
 312    -0.0082616394764254
 313    -0.0026879139914693
 314     0.041911704615953
 315    0.0072085170696617
 316      0.00197894593766
 317    -0.018732263030529
 318    0.00056916117179763
 319    -5.0001869364257e-05
 320    -0.00010151335869496
 321    0.0010338454423375
 322    0.00016974264735231
 323     0.032267207316591
 324    -0.0002825133406296
 325    0.00087379182350519
 326    -0.0053877826331159
 327    -0.0028507150801384
 328     0.061471148623683
 329    0.0043664086201748
 330    0.0064145897014182
 331    0.0022038971326444
 332    0.0050352999060034
 333     0.060446576625576
 334    0.0062156686321657
 335    -0.0082058037940887
 336    -2.6634530976768e-05
 337    0.0019810558151521
 338    -0.055958834595147
 339    -0.0061969891134871
 340    0.00070688996824548
 341    -0.035230283824008
 342    -0.013386654612098
 343     0.034692123238681
 344     0.024308890089927
 345     0.010484134812107
 346    -0.018846625721677
 347    -0.0014937090190654
 348    0.0013027383446367
 349    0.00080762897479084
 350    -0.00069314735374096
 351    0.00049425384915141
 352     0.014325418281986
 353    -0.00053714806545059
 354    0.00017422865508739
 355    -0.00028380966299544
 356    -0.001547800146668
 357    -0.041021484495917
 358    -0.0079274570064738
 359    -0.0013866379200336
 360    -0.0013158371741332
 361    0.0035732873832107
 362    -0.0053484463960694
 363    -0.002865697389105
 364    5.7004451359612e-05
 365    0.00098762583564442
 366    -0.0013847340568905
 Sym= A
 Ene=              60
 Spin= Alpha
 Occup=    1.00000
   1     -0.12391165220295
   2    -0.014383879692972
   3      0.12106517828716
   4     -0.01070906957785
   5    -0.0020210974035643
   6      0.31447494005546
   7     0.018879028708894
   8     0.035254658761609
   9     -0.44912402839672
  10     0.087893911006605
  11     -0.23599858163071
  12     0.017324837372587
  13    0.0027727185067119
  14     0.022236200448711
  15    0.0011230382729202
  16    0.0015366813245065
  17    -0.00065513079515515
  18    1.5101221790436e-05
  19    0.0026665393973237
  20    0.00080667166051463
  21    0.0002829883902727
  22    0.00069223579910405
  23    -0.00069328321528282
  24    0.00077704190180865
  25    0.00049961305267816
  26    -0.00073410708145845
  27    -0.0014584748751836
  28    -0.00093200253220749
  29    0.00049691270649065
  30    -7.1148961243862e-05
  31    0.00056763270307538
  32    -0.089777149103522
  33     0.034475671999328
  34     0.022043489574798
  35     0.026495511266099
  36    0.0018773532746253
  37    -0.063286823466582
  38    -0.0097884161439545
  39    -0.023183718363692
  40      0.19340187747765
  41     0.068163380891062
  42     -0.15500502770588
  43    -0.0081176960828082
  44    -0.0056114544026897
  45     0.019396418993684
  46    -6.9489249654664e-05
  47    -0.00018176304137018
  48    -0.0014599729487405
  49    -0.00023014952403427
  50    -0.00058528104668724
  51    -0.0008290470362799
  52    0.0014095708915791
  53    -0.0024592812144844
  54    0.00052160020217823
  55    0.0011278839549283
  56    4.6293302415944e-05
  57    0.00021102045066232
  58    -0.00052337424177396
  59    -0.0018050731484355
  60    -0.0012307845444018
  61    5.5155171866703e-06
  62    -0.00060695556723799
  63     -0.13382285028923
  64     0.036605024981996
  65     0.021362590675861
  66    0.0075990148330285
  67    0.00056486332789558
  68    0.0052050017583533
  69    0.0047653668450174
  70    0.0036100662567967
  71    0.0011489068182968
  72    0.00027044227151054
  73    -5.4469719781323e-05
  74     0.000763857777442
  75    -0.00080793235076664
  76    -3.464227750918e-05
  77     -0.30042189199407
  78     -0.12442292761532
  79     -0.08768341268448
  80    -0.019925992063973
  81    -0.026946262880201
  82     0.045666657477847
  83     0.032422642078753
  84     0.024822551202534
  85    -0.020640307337199
  86    -0.0017513357881246
  87    -0.0022867092578304
  88    0.00054576359461789
  89    -0.00055392770699387
  90    -0.00055356651834024
  91    -0.015879979377089
  92    0.0054796673168793
  93    0.0033289418781665
  94    -0.001134164492994
  95    -0.0040616037683251
  96    -0.079868158108294
  97    -0.0073737643536887
  98    0.0031300838349911
  99    -0.002993293746485
 100    0.0095834462851768
 101    -0.020821540358246
 102    0.0083603584132916
 103    -0.00058428370541702
 104    0.0053862005360212
 105    -0.0018714890391314
 106     -0.14081040238449
 107    -0.040621769769269
 108    -0.019758270247218
 109      -0.0134263295192
 110    -0.064751671150648
 111    -0.058473944517669
 112    0.0043042990763465
 113     0.035246718492129
 114     0.028814622451954
 115    -0.0037266595175824
 116    -0.0010657401952205
 117    -0.0019542312358502
 118    0.00045363064864526
 119    0.00014965467550593
 120     0.015677702902421
 121     0.010536091475173
 122    0.0014140906823449
 123    0.0013219225159283
 124    0.0029381351554155
 125    -0.082574020922055
 126    -0.012104180176562
 127    -0.00039508926522345
 128    -0.0030786791572831
 129    -0.0081252323674322
 130     0.021183467294485
 131    0.0090270482252905
 132    -0.00096961873920847
 133    0.0012067457642338
 134    0.0024319069189808
 135    -0.052293780712714
 136     0.028037552800716
 137     0.009197767066237
 138    -0.010101953409897
 139    -0.046209701944315
 140    -0.039773221737932
 141    0.0010089014157872
 142     0.026220423598568
 143     0.019922725908256
 144    0.0015591729399859
 145    0.0011457743152307
 146    8.470043352301e-05
 147    0.0024260416705342
 148    0.00010400245139503
 149    -0.034408656043865
 150    -0.0077768301478118
 151    0.0014111386106952
 152    -0.0025984067124088
 153    0.00076889572234362
 154     0.016947382611341
 155    -0.0014682259581873
 156    0.0024787618778839
 157    0.0019733494945102
 158    0.0008359127399793
 159     0.045304830327904
 160    0.0076366870708003
 161    -0.0040425275292737
 162    0.00010736233825105
 163    -0.002459442646799
 164     0.060581628243223
 165     0.097061491489706
 166     0.072507665333593
 167    -0.013943813800986
 168    -0.060439690116396
 169     0.037608564760859
 170     0.030207969952018
 171      0.04152890411332
 172    -0.016385295191941
 173    -0.00081613398563014
 174     0.001940501998373
 175     0.001517348838348
 176    0.00065064335591418
 177     -0.00221509679471
 178    -0.023820473831864
 179    -0.0099490361864588
 180    -0.0012287880900169
 181    0.00079204582215932
 182    -0.00075017715870996
 183     0.034487071115878
 184     0.001487233381386
 185    -0.00037580971049533
 186    0.0042156086818331
 187    0.0036938415435602
 188     0.066339335104031
 189    0.0074749261057149
 190    0.0058224862813698
 191    -0.0056011348412846
 192    0.00011303201392484
 193      -0.0333041589219
 194    -0.034460388945872
 195    -0.017530887758669
 196    -0.013296549603166
 197    0.0026848597641535
 198     0.013301940508807
 199    0.0064328569971669
 200    -0.0042911955144371
 201      -0.0138437260295
 202    0.00015069433745735
 203    -0.0003916209871345
 204    -0.00049587503670415
 205    0.00044510012504624
 206    -6.7148755415277e-05
 207    0.00015305620854963
 208    0.0016651697393368
 209    0.0011331733973039
 210    1.7118213068655e-05
 211    -0.00030376677997007
 212     -0.01459374025539
 213    -0.00082874937951885
 214    -0.00095415075185824
 215    -0.0017042915100371
 216    -0.00053373252217446
 217    -0.0062980543498461
 218    0.00089355293948709
 219     0.001424897316547
 220    -0.00060450216295731
 221    -0.00013125466404419
 222     0.093566167644725
 223      0.12979017661555
 224     0.051761044666093
 225      0.03320163739525
 226     0.038602456550471
 227    -0.070976953482728
 228    -0.0089648933392586
 229    -0.015650543121821
 230     0.038180651965471
 231    -0.0026660885731309
 232    -0.0027701765181763
 233    0.0011595627023595
 234    5.1043913211251e-05
 235    0.00046614006096161
 236     0.072675986646497
 237    0.0049299748227848
 238    -0.002118019135604
 239    0.0093400097734724
 240    0.0027142887653631
 241    -0.015870350836194
 242    -0.010296125796653
 243    -0.0017649453607869
 244     -0.00146107794005
 245      0.00231501987078
 246     0.089411205548343
 247    0.0062868647240803
 248     0.008661605195847
 249    -0.0052770502554328
 250    -0.005497142617096
 251      0.23991305039076
 252      0.10419700916496
 253     0.037684028405859
 254    -0.091365043725679
 255    -0.014361583083998
 256    -0.018751443202729
 257     0.051394264011419
 258     0.014079026717223
 259    0.0045399577817172
 260    0.0011407913927493
 261    0.00090993403464959
 262    0.00040175761032739
 263    -0.0005265702378681
 264    -0.0044047131599525
 265     0.058483222764742
 266    0.0015812551557036
 267    0.0023855907053268
 268    -0.0039828724772365
 269    -0.0071844276389067
 270     0.087950752476345
 271     0.014029493544983
 272    -0.0069113182166289
 273    0.0077928845785849
 274    0.0011551097105864
 275    -0.031268892738694
 276    -0.011587286650409
 277    0.0014430482709127
 278    -0.00089769623733904
 279     0.001431853384152
 280     0.064992174855284
 281     0.001615570737225
 282    0.0087185567172545
 283    -0.0012677143196019
 284      0.01266370982815
 285      0.07041298167488
 286    0.00017467618025903
 287    -0.0058437443503923
 288    -0.044060010756269
 289    -0.0019737494527792
 290    -0.0012172935959047
 291    -0.0026647911389628
 292    0.00035871203994847
 293    0.00050532986998365
 294    -0.053378354116406
 295    -0.009211068943116
 296    -3.5626696738811e-05
 297    0.0023844857379694
 298    0.0038651854747117
 299      0.03086278314145
 300    0.0040508017521658
 301    -0.0014809578420307
 302    -0.0028951086611417
 303    -0.00030326298934183
 304    0.0073279868111902
 305    -0.00092200995901887
 306    -0.00078492073397276
 307    5.1680785458506e-05
 308    -0.0019996241551922
 309      0.13913508755238
 310     0.010807905605242
 311     0.017390931745916
 312      0.01389192759829
 313     0.058484545631597
 314     0.025461681993212
 315    -0.0051396052964795
 316    -0.036854615100354
 317    -0.010796289153864
 318    0.0020721483893343
 319    0.0013505099557564
 320    -0.0002348705741158
 321    0.0022148800191949
 322    0.00061160561464852
 323    -0.041935577288707
 324    -0.0097215841480333
 325    -0.0017523266966796
 326    0.0029195365776972
 327    -2.3402950632201e-05
 328     0.041268474084859
 329    0.0043495472386229
 330    0.0029712318390187
 331    -0.00049274523987207
 332    0.0028081747993226
 333    0.0044221064106199
 334    0.0018448513577163
 335    -0.0012279796964037
 336    -0.0023281807518701
 337    -0.00045065733209171
 338     0.055830794898114
 339     0.051409957864626
 340     0.030877026627157
 341    -0.086919423072784
 342    -0.024831521737478
 343    -0.0070342436835779
 344     0.054215266696941
 345    0.0093205311338131
 346    -0.0024252475875841
 347    -0.0012450849177427
 348    0.00035814767959418
 349    0.0023847569138018
 350    -0.0017303706592575
 351    0.0028492529559654
 352     0.076314695370949
 353    0.0093465488703153
 354    -0.0032090932532482
 355    -0.0069429424865048
 356    -0.0021537503388827
 357    -0.011315318320474
 358    -0.0067419683545124
 359    0.0022650716285469
 360    0.0011563534799348
 361    0.0012394750720177
 362    -0.031311606904863
 363    -0.010886603574985
 364    -0.00027016913897456
 365    0.0026033537541882
 366    -0.00070037969308779
 Sym= A
 Ene=              61
 Spin= Alpha
 Occup=    1.00000
   1       0.0485938822995
   2     0.072588869625308
   3    -0.039391239056871
   4    -0.001028388593795
   5    -0.0044210065099554
   6     -0.11620394332005
   7    0.0053774599250511
   8    -0.019684088919148
   9      0.05903679501163
  10       -0.147127215424
  11      0.16244731768855
  12    -0.0095183714675148
  13    0.0091349824127754
  14    0.0015368338594787
  15    -0.00094471116747499
  16    0.00050755858409696
  17    0.00064217712509333
  18    -0.00024023426859544
  19    -0.00017616770998515
  20    -0.0022185119256727
  21    -0.0013611829644233
  22    0.0021496917536834
  23    -0.0015936382591103
  24    -0.0031912176585938
  25    0.00026168973101899
  26    0.0005274487046764
  27    -0.00075113110781099
  28    -0.00045696515142696
  29    0.00016532494697619
  30    -6.9112521132179e-05
  31    -0.00039025469508824
  32    -0.008419249743606
  33      0.16638591622528
  34     -0.03597454203882
  35    -0.0064717115772074
  36    -0.0018145126386971
  37     0.031928363536199
  38     0.033791259493972
  39     -0.07869692033565
  40    -0.028215557065862
  41     -0.05101089880663
  42      0.29455936380083
  43    -0.0078456486938322
  44     0.012090960430255
  45    -0.038833729402578
  46    -0.00068847004423276
  47    -0.00042907617835138
  48    0.0021604163898944
  49    0.0011663874294402
  50    -0.00064385402418702
  51    -0.00047357855027899
  52    0.00036232244111427
  53    -0.00019107685303359
  54    0.00037971518442222
  55    0.0004662511734162
  56    3.5312645821348e-05
  57    0.0012255948821562
  58    0.0021945194115366
  59    0.0013136174250387
  60    0.00019388915943795
  61    -0.0005119273124311
  62    -0.0015356770597831
  63      0.11159322385706
  64    -0.023078518371759
  65    -0.024026667558313
  66    0.0017904162850853
  67    0.0073751085444124
  68    -0.0015067260738254
  69    0.00097296912833224
  70    0.0086078185204611
  71    0.0078523543528645
  72    -0.00029875816102454
  73    0.00040486476271986
  74    -0.00077739154105616
  75    0.00014266701319201
  76    0.00015981851110311
  77     0.060684075565919
  78     -0.17945946310358
  79    -0.048958945072778
  80     0.085587951499596
  81     0.034012433685469
  82    -0.054821485905092
  83    -0.041513850398714
  84    -0.018340470208267
  85     0.033474057964942
  86    0.0022853688148683
  87    0.0024694780113927
  88    -0.00099513751289557
  89    -0.00081231821786182
  90    0.00043605015444582
  91     -0.12345097242149
  92    -0.013662451407575
  93     0.011124527784264
  94    -0.0065479458984708
  95    -0.0086599982335166
  96     -0.02202441955509
  97    0.0032759275229856
  98    -0.002377031839441
  99    -0.0027186967067491
 100    0.0067410591131253
 101    -0.084101830237321
 102    -0.0073580791046786
 103    -0.0030897556721425
 104     0.011757100038758
 105    0.0010301704151425
 106    -0.064185559632971
 107    -0.073057170194802
 108     -0.06647253219953
 109    -0.033660261030848
 110    -0.092634978335055
 111    -0.010287447491338
 112     0.023974348219447
 113      0.06390435421141
 114     -0.01138641276488
 115    -0.0037022506048877
 116    -0.00080272388623018
 117    -0.0013156176394643
 118    0.00075222932260955
 119    0.0007680628551696
 120    0.0079540942804555
 121     0.013790824720306
 122    0.0012657449786503
 123     0.002708843612594
 124    0.00099506774226512
 125    -0.069763357708335
 126    -0.0073335239310609
 127    -9.2063373672388e-05
 128    -0.0015133096588781
 129    -0.0077502575329839
 130     0.036266635325796
 131      0.01111712188658
 132    -0.0022797036805733
 133    0.00092236224053582
 134    0.0014109345029312
 135     0.047162622459894
 136    -0.0068763467069026
 137     0.032219994632977
 138     0.056807725687567
 139    -0.033263238337872
 140     0.060806587889045
 141     -0.02641710195416
 142     0.026741005840631
 143    -0.047848978070763
 144    -0.00076713966576474
 145    -0.0030966811920471
 146    -0.00064917491556972
 147    0.00027141260499953
 148    0.00017788728631017
 149     -0.02095348402303
 150    -0.0059148451349839
 151    -0.001982255265005
 152    -0.0023608198367104
 153    -0.0021847980095951
 154     0.022635294936632
 155    0.0031177901507292
 156    0.00011045544399479
 157    0.00057515691966708
 158    -0.0028163678378011
 159    -0.062987738092444
 160    -0.010092305106989
 161    0.0035237864296926
 162    0.0026410460269482
 163    0.0037876742227374
 164     -0.13854268712825
 165     0.086190925168528
 166     0.015383638469013
 167     0.053174538649625
 168    -0.038416626702149
 169     0.041534897992653
 170    -0.029799015611358
 171     0.018791384669862
 172    -0.022457996447401
 173    -0.00060216332069462
 174    0.0015659123844532
 175    0.00061650701780445
 176    0.0003967670365881
 177    -0.0029326048646415
 178    -0.0010308071826758
 179    -0.0013441562512615
 180    -0.0012437222703108
 181    0.0022419632570974
 182    -0.0019569211976359
 183     0.037939680926455
 184    0.0037283820987107
 185    -0.0021361179756302
 186    0.0043710777686862
 187    0.0034721556257332
 188     0.081454990786766
 189    0.0092109841711851
 190    0.0045093966315364
 191    -0.0074063213993673
 192    -0.0005051134740972
 193      0.17832695276442
 194    -0.044164806845225
 195    -0.00020853991958431
 196    -0.0028567941165192
 197    -0.062999199746225
 198     0.037696462087199
 199    0.0022973520628368
 200     0.035533993387046
 201    -0.018558630642102
 202    0.0025596313595812
 203    -0.0025282231435698
 204    -0.00049002248908419
 205    0.00040363671967384
 206    0.00056893441472945
 207     0.034299541992928
 208    0.0078051262635258
 209    -0.0016449159422831
 210    0.00073913087987408
 211    0.0021532162473057
 212    -0.042961466491318
 213    -0.0065008926591316
 214    -0.0032275014753044
 215    -0.002109941352093
 216    -0.0031381857057888
 217    -0.047850682464009
 218    -0.0079535280302077
 219    0.0047743038720186
 220    -0.00046232578307592
 221    0.0018349718828812
 222    -0.0039104989784227
 223    -0.037954994877699
 224    -0.0038827453771485
 225    -0.023156285608403
 226     0.023204625300347
 227      -0.1108393146272
 228     0.014232698135017
 229    -0.010834290143927
 230     0.068537332015666
 231    -0.0035718492082792
 232    -0.0040921862997948
 233    0.0017822045516206
 234    -0.00015415495906723
 235    0.0004214439466271
 236    0.0067510738135111
 237    0.0048388666550651
 238    0.00098601929009137
 239    -0.0008484869803254
 240    0.0031210519236811
 241     -0.10490418681611
 242     -0.01650408545942
 243    -0.0029051399330463
 244    0.0035062764356034
 245    -0.0086884236343295
 246     0.023728366887102
 247    0.0046687797818227
 248    0.0022661032646051
 249    -0.0010695374176335
 250    0.0023873739361088
 251     0.040973351042002
 252    -0.024118827668661
 253    -0.019148128872335
 254    -0.0092611544886737
 255     0.020854501897433
 256    -0.052879997301389
 257    0.0081508121459842
 258    -0.016543219193055
 259     0.036754076982965
 260    0.00098550686416998
 261    0.00036006895429397
 262    0.00032683195840537
 263    -0.00011932790235827
 264    -0.00051594052870984
 265     0.022457903148278
 266    0.0058070371269834
 267    0.00029256541442412
 268    -0.0020542464364881
 269    -0.0011069447111678
 270    0.0068069117817717
 271    0.0041433937474672
 272    -0.00054076291289593
 273    0.00010045231736672
 274    0.0014954143735993
 275    -0.0029595785306879
 276    0.0046852438151649
 277    0.00020664179518306
 278    -0.00027413711646557
 279    0.0013147018563068
 280      0.30734913323616
 281    -0.072648779477415
 282    -0.022298602640522
 283    -0.0050953863086129
 284    -0.0065365038894184
 285    -0.011743214514926
 286    0.0073934871804738
 287    0.0044768880706833
 288     0.013123467251724
 289    0.00034646815635808
 290    0.0002815957148087
 291    0.00073426305697282
 292    0.00013386365521811
 293    -6.2631885666346e-05
 294    -0.0084410417831546
 295    0.0027964413480116
 296    -7.5887656590052e-05
 297    0.0010331414488649
 298    0.0011106846784446
 299    -0.018906562364089
 300    -0.0024484166501773
 301     0.001116741514968
 302    0.0015098999876311
 303    -0.00098451349919993
 304    -0.019344563419739
 305    0.0023431304477908
 306    0.0015146569292319
 307    -0.001617699258383
 308    1.2531294767063e-05
 309     -0.19623515144561
 310    -0.043753349569625
 311     -0.01035568800709
 312     0.030209573669346
 313      0.13149205790578
 314     0.010737806240023
 315    -0.017272049865026
 316    -0.073736186253016
 317    -0.0026156912302178
 318    0.0030421179486634
 319    0.0022010827083998
 320    0.00062190274289446
 321    0.0039583944959322
 322    0.0011924430958323
 323     -0.11499539092075
 324    -0.017879228700888
 325    -0.0041595182814615
 326     0.011365523799049
 327    0.0031134718898608
 328     0.034004154471028
 329    0.0052197605873378
 330    0.00098351863166063
 331    -0.0042444257411174
 332    0.0012316480560244
 333    -0.030631912978191
 334    -0.0030126674163397
 335    0.0039381654151506
 336    -0.0051591926974323
 337    -0.0029878060477916
 338    -0.024211434609773
 339    -0.063381549722437
 340    -0.015353617629486
 341    -0.045266531511565
 342    -0.055103005093929
 343     0.080243002482052
 344     0.024995755106157
 345     0.029242164667298
 346    -0.039488692917099
 347    -0.0031822930091771
 348    0.0032458784663291
 349    0.0016107428448303
 350    -0.0008697172375926
 351    0.00023157572984258
 352     0.021381922894808
 353    0.0076856003867384
 354    0.00071515567642573
 355    0.00054449986152088
 356    -0.003699970844655
 357     -0.10642821865636
 358    -0.015766572183449
 359    -0.0045598573308347
 360    -0.0022767730720977
 361    0.0098769882744976
 362    0.0037228630834322
 363    0.0039171620176634
 364    0.0014822863026972
 365    0.0018274143947682
 366    -0.0032498650044222
 Sym= A
 Ene=              62
 Spin= Alpha
 Occup=    1.00000
   1     0.022815378004326
   2      0.08138997147457
   3    -0.048882053562175
   4      0.01163220200458
   5    0.00082700543092667
   6    0.0092388653829072
   7    -0.0032846366556965
   8     0.044513349653647
   9     -0.18133684994287
  10    -0.088897262892895
  11     -0.10084347316156
  12     0.027748027242907
  13     0.015258400913799
  14    -0.014166167759744
  15    0.00091518000681428
  16    -0.00068506789649002
  17    -0.00066861449555203
  18    -0.00038448836629085
  19    -0.00030321096736518
  20    0.00037503193399958
  21    -0.0013785632109653
  22    0.00062789674991774
  23    -0.00041001460388256
  24    -0.0016579978967332
  25    -0.00048329668198112
  26    -0.0005602320789996
  27    0.0011275000565776
  28    0.0023987388573981
  29    0.0013982305164421
  30    0.00033719509368335
  31     0.000898103340751
  32    -0.014971386538103
  33      0.15230296405424
  34     -0.16615877482179
  35    -0.0053626963882981
  36    -0.0049546692078724
  37    -0.011427283293133
  38      0.11351816528368
  39      -0.1162685466943
  40     0.064877194266799
  41     -0.24299481028493
  42      0.40200757507335
  43    0.0031483854828829
  44    -0.0041618409035195
  45    -0.031126340157948
  46    0.00054441167335729
  47    -0.00031134610782543
  48     0.001399490215096
  49    -3.9361886419051e-05
  50    0.00018242798379384
  51    -9.4968014154683e-05
  52    -0.0020521804971302
  53    0.0022538824906869
  54    -0.00020452611282202
  55    -0.0024467559541838
  56    -0.00053741245624385
  57    0.00056205488612835
  58     0.001894307407347
  59    0.00092311390945054
  60    -0.0010586322829814
  61    0.00092786892496073
  62    -0.0011813805547888
  63       0.1315365788359
  64     -0.04193603685269
  65    -0.045792519100194
  66    -0.0015201501001772
  67    -2.0499478854567e-05
  68    -0.00046216559660625
  69    -0.00065684267353876
  70    -0.0096410322318274
  71    0.0008297688676037
  72    0.00088109008672877
  73    0.00042635145103918
  74    -0.00065004833294623
  75    0.00069960991012523
  76    0.0013243163765927
  77     -0.19779198253656
  78     0.050312650221573
  79     0.016177891664558
  80     0.011285690637426
  81    0.0029554078365874
  82     0.039161879937475
  83    -0.013343657587459
  84    -0.0045515354108812
  85    -0.021423782840902
  86    -0.00071532941703408
  87    -0.00085556128976262
  88    0.00041082369141252
  89    -1.0608622939815e-05
  90    -0.00026327021931202
  91     0.025803112399745
  92    0.0012814963840321
  93    -0.0028767407746523
  94    0.00093593671091041
  95    0.0003899401469085
  96    -0.018035881979986
  97    -0.0035083763036542
  98    0.00062880199778176
  99    -0.00043639983355914
 100    0.00093639603840216
 101      0.01263497729849
 102    -0.00093563038075432
 103    -0.00026716526328692
 104    -0.0012335414152842
 105    -0.00097887056241115
 106     0.062842622601042
 107     0.057437021395018
 108     0.046384191431993
 109     0.042178106254458
 110      0.02596891734244
 111    -0.066845489162441
 112    -0.025632990777231
 113    -0.029168587101099
 114     0.050457233697128
 115    -0.00075905306744086
 116    0.00034479411018391
 117    -0.00058551341455019
 118    -0.00048871449735376
 119    -0.0024291233408933
 120     0.037085647556072
 121    0.0059981516678648
 122    0.0024262405876566
 123    -0.0028909721866267
 124    0.0018475774935948
 125    -0.014325764222947
 126     -0.00836162838089
 127    -0.0011926521835799
 128    -0.0012398309222695
 129    0.00031424022280556
 130    -0.023213011169021
 131    -0.0079738439372212
 132    0.00057796375266178
 133    0.00080617694204415
 134    0.0016398002756229
 135    -0.052736731847401
 136    -0.077727493761573
 137     -0.05337750592417
 138    -0.012814407907846
 139    0.0053927515586708
 140    -0.046462427857919
 141    0.0014352665364522
 142    -0.013581820265626
 143     0.039686273286019
 144    0.00059978997867953
 145    0.00070841049433846
 146    0.00022861262157865
 147    0.00082154310030597
 148    8.9625605301463e-05
 149    -0.028424187541128
 150    -0.0010655082074978
 151    0.0015620459915223
 152    -0.0041350433039267
 153    0.00010444630076856
 154    -0.019507354865382
 155    0.0044508509078858
 156    -0.0024170698004525
 157    0.00077211475980464
 158    0.0026523207182291
 159    0.0077885071592606
 160    0.0057158220444237
 161    0.00048663748673061
 162    -3.8902862212201e-05
 163    0.00087296784301179
 164    -0.085282197277679
 165    -0.052830290224722
 166    -0.023199702940597
 167    0.0045885608591767
 168      0.01253772364751
 169    -0.014864632500574
 170    -0.0074325544099936
 171    -0.0093922209805232
 172     0.010302446582846
 173    -0.00030733241381102
 174    -0.00086202409991476
 175    -0.0007548157863864
 176    4.6892622665826e-05
 177    0.0009326878852423
 178    -0.0018267007151836
 179    0.0034783577603461
 180    -0.00070854763213782
 181    -0.0011847386193721
 182     0.001184372578981
 183    -0.022898524360028
 184    -0.00068798789773236
 185    0.00041892774936453
 186    -0.0020038801283323
 187    -0.002647002272625
 188    -0.024245107668628
 189    0.0019701744011867
 190    -0.0021395986834891
 191    0.0028864054899266
 192    0.00031744276871511
 193      0.18868830292264
 194     0.068917403145702
 195     0.042066048972145
 196     0.029803624774335
 197    -0.0067914067253422
 198    0.0025480539237554
 199    -0.025707376976486
 200     0.010007352321551
 201    0.0045516774336955
 202    -0.00051156439006912
 203    -5.6250693018682e-05
 204    0.00087062002631839
 205    -0.00075281156087446
 206    0.00081562017705542
 207     0.017910073688954
 208    -0.0022811610458008
 209    -0.0019763901051438
 210    -0.0010921010706757
 211    0.0030397383183637
 212     0.035143481427106
 213    0.0020729365789574
 214     0.002569951345517
 215     0.004053037885792
 216    0.0011709619766965
 217    0.0035536416810175
 218    -0.0042955899965352
 219    -0.0016633978279926
 220    0.00069459480357754
 221    -0.0015063244377366
 222    -0.0067938849403578
 223     -0.01115852763882
 224    -0.016994279570463
 225    -0.040780242191466
 226     0.093356161761861
 227     0.043977117913072
 228     0.015754106283245
 229    -0.055260627970083
 230    -0.018863023031195
 231    -0.0011611293877664
 232    0.0023225614671084
 233    8.6402271531402e-05
 234    -0.0044971944167388
 235    0.00097570314144538
 236     0.073526070534843
 237     0.017951973202422
 238    0.0022662048019472
 239    0.0060540172955987
 240    -0.0017812798657489
 241    -5.201025089756e-05
 242    0.00019813565667811
 243    0.0013382607652081
 244    -0.0032543263585889
 245    -0.0018148994773046
 246    -0.071484000612958
 247    -0.012434392366099
 248    -0.005870223164801
 249    -0.00013807872445045
 250     0.003480515606552
 251     0.040378915660167
 252     -0.10197065649991
 253    -0.014916841695739
 254     0.018094456119478
 255     0.028106842799643
 256      0.10087347968735
 257      -0.0104696191587
 258    -0.010985337445858
 259    -0.056270323910538
 260    -0.0034900415493386
 261    -0.00049851532678331
 262    -0.0020512372944802
 263    0.00048241922416377
 264    0.00084619379739702
 265     -0.11435332121008
 266    -0.016349545853737
 267    9.9136664741511e-05
 268    0.0064202370993119
 269     0.011105639500007
 270    -0.025328596533772
 271    0.0033409603873352
 272    0.0030799680343359
 273    -0.003273112605225
 274    -0.0042180507052734
 275    -0.0063491959924376
 276    0.0050521558068963
 277    -0.0027070912056713
 278    -0.0022825490194413
 279    -0.0040082375963387
 280     0.093149603041077
 281    -0.029469869784507
 282    -0.013944587468659
 283    -0.054531196583107
 284      0.16538225798141
 285    -0.026791221196359
 286     0.031879470114179
 287    -0.090103180494144
 288     0.023168976938245
 289    -0.0038156294907529
 290    0.0019840369896382
 291    0.00050518171540919
 292    0.0013023775949317
 293    -0.0073230070913482
 294    -0.049473028582355
 295    -0.007812291247452
 296    0.0016495635542134
 297    -0.0021033704803267
 298    0.0063425289392478
 299    -0.091838505592812
 300    -0.014534456296774
 301    0.0069766058999518
 302    0.0021010316410805
 303    -0.0061668379118797
 304      0.12697870626235
 305     0.026880612013339
 306    -0.0083449080528158
 307    0.0059914187249291
 308    -0.0011870889462618
 309      0.31277444287814
 310     0.097056943071283
 311    0.0054326874775003
 312    -0.074478136872353
 313    -0.017826003681368
 314     0.097491819774059
 315     0.040342000312773
 316      0.01613365918157
 317    -0.060737740428675
 318    0.00023222076336212
 319    -0.0026321633615312
 320    -0.00019718451788561
 321    0.0030593723094695
 322    0.00060462922690842
 323     0.018652087951062
 324    -0.0015336371114938
 325    0.0033465852834708
 326    -0.0041218767813508
 327    -0.004495057046397
 328     0.046400616159565
 329    0.0033090849142992
 330    0.0086056353292026
 331    0.0025578186050935
 332    0.0023698914552309
 333      0.12344783857438
 334     0.017420940308392
 335    -0.013875317686233
 336    0.00072051426206919
 337    0.0033547593995531
 338     0.070321795345219
 339     0.043644541534459
 340     0.026086657266299
 341    -0.0064946147281979
 342    -0.030331030336399
 343    -0.0066363352798955
 344    0.0085692546940301
 345     0.010771728692365
 346    0.0058431394497994
 347    -0.00090936140092822
 348    0.00054755550437907
 349    0.00028668545390947
 350    -0.00067877532471067
 351    0.00047831922777733
 352     0.036455515161347
 353    0.0022402312479502
 354    -0.003639964590385
 355    -0.0025724018890261
 356    -0.0015762773879488
 357    0.0058686816592989
 358    -0.0019411212750165
 359    0.00044855319917713
 360    0.0016949634720934
 361    -0.0015772034747957
 362     0.018871004516778
 363    3.0984865320645e-07
 364    0.0028363088740628
 365    0.00035761154883289
 366     0.002221783673398
 Sym= A
 Ene=              63
 Spin= Alpha
 Occup=    1.00000
   1     0.024945422991347
   2      0.19658248181312
   3     -0.49683566623688
   4     0.036766414609104
   5    -0.0005734408507222
   6    -0.054072086771996
   7     0.010058244247269
   8    -0.025284419990748
   9     -0.15713483696903
  10     -0.12656950035423
  11      0.15465250251077
  12     0.022143504892721
  13     0.018253258313854
  14    -0.0078936130547988
  15    1.2901460565117e-05
  16    -5.1386802667555e-05
  17    -0.0009080896493124
  18    -0.0007765116854092
  19    -0.00056416917659876
  20    -0.00019782189973859
  21     0.002159354302897
  22    -0.0031713514475846
  23    0.0013050762310042
  24    0.0024704209165636
  25    -0.0010525669159658
  26    -0.00083392537540217
  27    0.00052813284391129
  28    0.00072720330303801
  29    0.00018563798890355
  30    0.00096747787778662
  31    0.00093470416523176
  32    -0.030252344658698
  33      0.27454316251993
  34     -0.44624774802667
  35     0.024489570602103
  36    0.0012762923796732
  37    -0.0044341519942641
  38     0.089144367575451
  39     0.088269399105619
  40    -0.0085578929542311
  41    -0.094709384708214
  42    -0.051765436918678
  43    0.0019690155694098
  44    0.0055811723928866
  45    -0.0061550433319929
  46    0.00043925873962264
  47    0.00027598163280471
  48    -0.00054967754087275
  49    0.00029817832141471
  50    0.00060983950306376
  51    0.00092979072918221
  52    0.00048876890249934
  53    -0.0024053059640421
  54    0.0020915170977972
  55    0.0017256112772181
  56    0.00044591215477675
  57    0.00022154574352295
  58    -0.00091057051381417
  59    -0.00072535263864032
  60    -7.811074956947e-05
  61    -0.00047973569353363
  62    6.7452950550586e-05
  63      -0.3036084282964
  64     0.054736091726893
  65     0.020927771763289
  66    0.00027607216770633
  67    -0.00024391490958057
  68    -0.0052915050820412
  69    -0.0035707150212015
  70    -0.0051953961920647
  71    -0.003962614571561
  72    -0.00015693102434702
  73    -0.00037646499578585
  74    0.00043549252933475
  75    -0.00028147776089973
  76    -0.00060223135960079
  77     0.065441984306581
  78     0.098397939802044
  79     0.026447049847441
  80    -0.0018689707282134
  81    -0.017306738388638
  82     0.017337608265089
  83    -0.00027949251428116
  84    0.0054245448599647
  85    -0.0079919071907906
  86    -0.00068714439645174
  87    -0.00068971578659386
  88    9.5138363841118e-05
  89    -0.00059247953467463
  90    -4.3818959495523e-05
  91     0.035888350758949
  92    0.00049289088221827
  93    -0.0043498038312241
  94    0.0026017461324786
  95    0.0025482182694874
  96     0.014240715705316
  97    -0.0058985814717728
  98    -0.00049442474096897
  99    0.0016794435885024
 100    -0.003188235872688
 101     0.047362898628109
 102    0.0028861172569738
 103    0.00035828311346101
 104    -0.006491725480255
 105    -0.00035327649038279
 106      0.15227278037307
 107    -0.017166327913578
 108    -0.022477124904682
 109    -0.018489580025119
 110    0.0064495777845771
 111    0.0027814839597382
 112    0.0056911853688215
 113    0.0025639654113757
 114    -0.010624992879937
 115    0.00013716263444543
 116    -0.00012860868096613
 117    0.00059112567756177
 118    0.00033229693553295
 119    0.0007714590888486
 120    -0.019024829246887
 121    -0.0062965685884533
 122    -0.00096390336677565
 123    0.0016158154282495
 124    0.0004850672934007
 125    -0.0006680612170721
 126    -0.00041317080217357
 127    0.00091790025544045
 128    -0.00048957603549867
 129    1.2801092777856e-05
 130    0.0082198880282321
 131     0.001338772632549
 132    -0.0002258460385876
 133    -0.0011311464841817
 134    0.00045337184255084
 135     -0.12442905572435
 136     0.050352110135453
 137     0.014017217682581
 138     0.037797302321549
 139    0.0080281211415888
 140    -0.0031824494212102
 141    -0.023472947759793
 142    -0.005141543063401
 143    0.0011888858820013
 144    -0.00071972810821302
 145    -0.0019510609149789
 146    -2.3179478861893e-05
 147    0.0003629003729137
 148    -0.00013480285905411
 149     0.015485818576384
 150    -5.154963176929e-05
 151    -0.0011651999926594
 152    0.0018939085987381
 153    0.00056136049507128
 154      0.04171319586774
 155    0.0040628282522614
 156    0.0036695571609156
 157    -0.00028824034819695
 158    -0.0019999589953799
 159    -0.0075755239047176
 160    -0.0054938767046977
 161    -0.00084606989400965
 162    -0.00019912120755831
 163    0.00046971521809787
 164     -0.02548525952891
 165    -0.038946791786521
 166    -0.030251648166935
 167    -0.006828218731578
 168    -0.0046187541837557
 169     0.086416182455912
 170    -0.0073175499053786
 171    -0.0028913728104709
 172    -0.049058869371104
 173    0.0018550404560325
 174    0.0017074056387282
 175    0.0031318666771711
 176    -0.00064735868152501
 177    -0.0013311014853462
 178    -0.065031162323298
 179    -0.011174154181334
 180    -0.0029871648663093
 181    -0.0055190457269973
 182    0.0026329044614456
 183     0.047484894256768
 184     0.010283309005958
 185    0.00067348534968913
 186    0.0032737589379124
 187    0.0019464644474782
 188    -0.005937988822444
 189    0.0019541908781176
 190    0.00017661811949606
 191    0.0012971582380243
 192    -0.0033160707234031
 193     0.019727080958377
 194    -0.043702017491083
 195    -0.038879405564252
 196    -0.042222819834544
 197    0.0079279574538517
 198    -0.011541713262638
 199     0.027296531873145
 200    -0.019032484638065
 201    -0.00036677181316673
 202    -0.00014322089183299
 203    0.00072754304726753
 204    -0.0010436557606981
 205    0.00086027136566941
 206    -0.0011018996308832
 207    -0.009670027144898
 208    -0.00068032070020011
 209    0.0021259545918035
 210    0.00071437202970638
 211    -0.00062777639926798
 212    -0.033292439567619
 213    -0.0047218403063597
 214    -0.0017684766146479
 215    -0.0034951277034047
 216    -0.00090374336823873
 217     0.019629314905893
 218    0.0047990058838189
 219    -3.21712837869e-05
 220    0.0015148481409985
 221    -0.00039510139568964
 222    -0.049961147691041
 223      0.03205642929001
 224      0.01740619289813
 225    -0.010875757925539
 226    -0.055315959466174
 227     0.055286485714728
 228     0.008597461850257
 229     0.029178503644516
 230    -0.029755925346681
 231    0.0027666037370637
 232    0.0019189040156093
 233    -0.001259266328844
 234    0.0011359422134641
 235    -0.00095839336546773
 236    -0.035974488338028
 237    -0.015253233526887
 238    0.00024267006990767
 239    -0.0024960108504086
 240    -0.0019297061845607
 241     0.062571871079044
 242    0.0083980513648439
 243     0.002672574784813
 244    -0.00062323353045561
 245    0.0052775853002496
 246    -0.012909386928262
 247    -0.0049392215678889
 248    -0.00096779610725061
 249     0.002350379556414
 250    -0.001030291273853
 251      0.17086431080301
 252      0.10650488284624
 253     0.046270679350024
 254    -0.028407121024701
 255    -0.010131336825721
 256     -0.03710539090808
 257     0.015553409659763
 258    0.0093120430092152
 259       0.0132709890268
 260    0.0014907851129967
 261    0.00036917305717479
 262    0.00085441564932326
 263    -8.9695530684981e-05
 264    -0.0013712316658729
 265     0.067102589832336
 266    0.0049163335268557
 267    0.00048511348042775
 268    -0.0048531157729554
 269    -0.0076557707435704
 270     0.047207696260438
 271    0.00051043207048919
 272    -0.0051529654467621
 273    0.0046261049072293
 274    0.0020857659934804
 275     0.011301507923398
 276    -0.0064052342501941
 277     0.003822681991984
 278    0.0020841566100165
 279    0.0017213071312949
 280      0.18304422841621
 281     0.092521023397881
 282    0.0082918384749518
 283    -0.056395133828432
 284    -0.068771492628611
 285     0.013268529140762
 286     0.038150538549298
 287     0.038297919889921
 288    -0.0041908130052547
 289    0.00052853176574251
 290    -0.0012564841898858
 291    -0.0011841437739708
 292    -0.00067808781565192
 293    0.0022461163151257
 294     0.044460790460601
 295    0.0026721544229763
 296     0.001913018781427
 297    -0.001040498713044
 298    -0.0073909936149166
 299     0.094354978358092
 300     0.014925690493718
 301    -0.0041148882395829
 302    -0.0072859687718776
 303    0.0077864541849283
 304     0.015480844875591
 305    -0.0031105220834753
 306    -0.0003230728794276
 307    0.0055442942004916
 308    -0.00074941219069124
 309    -0.054653619961786
 310    0.0046667289004513
 311    -0.029821945523581
 312    -0.074526734474642
 313    -0.014657333306568
 314     0.019692189267668
 315      0.04035411032385
 316     0.016506735920957
 317    -0.023044547353087
 318    -0.0012186597536177
 319    -0.003235013361529
 320    -5.567642030336e-05
 321    0.0015415907800769
 322    0.00027618118795813
 323    -0.0026583310056314
 324    0.00018813817552997
 325    0.0025061798847709
 326    0.00062730285482911
 327    -0.00011277415870614
 328    -0.031954729095578
 329    -0.005474847866227
 330    -0.00039834805656024
 331    -0.00094087392648948
 332    -0.0029311028698622
 333     0.063496605313229
 334     0.012553860871033
 335    -0.0042879014486199
 336    0.00046837726622133
 337    0.0032006884836948
 338      0.08289214808472
 339     0.039348222113599
 340    -0.0098440056711849
 341     0.026129153295736
 342    -0.072213054114068
 343     0.021570943105386
 344    -0.019899668926534
 345       0.0464035775808
 346    -0.006760492158408
 347    -0.0017946017060419
 348    0.0023200172441482
 349    3.7220615374204e-06
 350    2.0814345133863e-05
 351    -0.00060976030745135
 352     0.040099733647807
 353    0.0047221804891253
 354    -0.0043374858149273
 355    -0.0023293062850981
 356    -0.0023727955789301
 357    -0.014369980004486
 358    -0.0061000202937534
 359    -0.00099936800821835
 360    0.0020939768834979
 361    3.464381127174e-05
 362     0.061436576083404
 363    0.0085048577652243
 364    0.0060757579452275
 365    -0.0016158333720348
 366    0.0032496458814421
 Sym= A
 Ene=              64
 Spin= Alpha
 Occup=    1.00000
   1      -0.1329543424561
   2     0.083321776907612
   3     -0.20538465797488
   4     0.043598727072759
   5    -0.0050644080405539
   6      0.24252709597307
   7     0.028563566139466
   8     -0.10675203340332
   9     -0.19324662538525
  10    -0.040665490603899
  11      0.20116251153602
  12    0.0087913722374475
  13    -0.0022334436703454
  14    -0.0073460155232266
  15    1.1754817214907e-05
  16    0.00085973036774875
  17    -0.0029435742527855
  18    -0.00045856306376431
  19    0.00037310474379472
  20    -0.0016452509564359
  21    0.00083455297551987
  22    -0.00092266528354651
  23    -0.0012718716751861
  24    -0.00042655787248494
  25    -0.00026844382719727
  26    6.0374038817924e-05
  27    -0.00058644227602732
  28    0.00077475390765266
  29    0.00093384497408518
  30    -2.7675690535447e-05
  31    0.00092041924132998
  32    -0.0016970408139991
  33     -0.22300513639779
  34      0.23942653254117
  35    -0.035867092284534
  36    0.0072208455598602
  37    -0.050014760816226
  38     0.024551080315357
  39     -0.16163562963382
  40      0.19993363029609
  41     -0.23246509487567
  42      0.26223250042024
  43    -0.0045075772104327
  44       0.0358683440252
  45    -0.032296301543436
  46    0.0012434696027013
  47    -0.00067593112937771
  48    0.00077665734575862
  49    -0.00047959609481872
  50    -0.00011063767589028
  51    0.00078921647531303
  52    -0.00033952672450612
  53    0.00016345632591977
  54    -0.00033054717778423
  55    0.00038460920205939
  56    -0.00025909978434923
  57    0.00023792705799858
  58    0.0021113457973345
  59    0.0017500892222692
  60    -0.00058885095233795
  61    0.00055457863377728
  62    -0.00067737486728135
  63      0.11411470171104
  64     0.013867918540741
  65     0.022637823303042
  66    -0.00044857930436274
  67    -0.0030278688054899
  68    -0.010471941637371
  69    -0.0046848176850447
  70    -0.0025963740961114
  71    -0.001239927922173
  72    -0.00019793430942466
  73    1.0475389693537e-05
  74    0.00061181898176457
  75    -0.0004025676039278
  76    -0.00020402677077402
  77     -0.00992537169878
  78     0.021430220993395
  79     0.011264574811353
  80    0.0064906239194982
  81     0.025246088530591
  82     0.021827385961481
  83    -0.0073068773206627
  84    -0.015864766813649
  85     -0.01096585891726
  86    -0.00015716513897924
  87    -0.0010534556823675
  88    -1.7967622715336e-05
  89    0.00092822187445999
  90    -0.00024052769288207
  91     0.019951729680425
  92    -0.00097689722462059
  93    -0.0018260162357052
  94    0.00035038619457685
  95    0.00067347661225646
  96    -0.006936182706066
  97    -0.0031347914479156
  98    -7.973715875541e-05
  99    -0.0012345756337758
 100    -0.00011430942050169
 101    -0.013113568595874
 102    -0.003765018812071
 103    0.00021208744429889
 104    0.00080477764240243
 105    -0.00083890326713624
 106      -0.2076426399198
 107    -0.023301829462057
 108    -0.038406668232059
 109    -0.019618871285174
 110     0.014270385070979
 111     0.040104462700636
 112    0.0081480588155061
 113    0.0031273209105585
 114    -0.033688100511838
 115    0.0013720184567444
 116    2.8296068253899e-05
 117    0.0010719476843332
 118    0.00018468245259952
 119    0.0012256473948018
 120    -0.034409067702839
 121    -0.0055682243157361
 122    -0.0030724956064891
 123    0.0024004667562655
 124    -0.00054589167329312
 125     0.021819596523558
 126    0.0047123305408632
 127    0.0011114564129155
 128    -4.3950410760367e-05
 129    0.00071138631890995
 130    -0.0004449419838262
 131    0.0010382729812704
 132    0.0015803606156157
 133    -0.00054288123605348
 134    -0.0011441519801095
 135      0.10157468211681
 136    -0.031203680306202
 137     0.019566900157002
 138    -0.00063612876142319
 139     -0.06181559120942
 140     0.058133665055361
 141    -0.00068312663438956
 142     0.041060083162969
 143    -0.040632167875415
 144    0.0004872840884418
 145    -0.00011860077408213
 146    -0.00043363476487784
 147    0.00056501387276621
 148    0.00012842102206518
 149    -0.044620935134401
 150    -0.0078989231497286
 151    0.00099283193311542
 152    -0.0043694604269928
 153    -0.0030848669134991
 154    -0.025985228265333
 155    -0.0069846756256384
 156    -0.0036611245537106
 157     0.002256168398238
 158    -0.00033822882720581
 159    -0.028602371218896
 160    -0.007520559607547
 161    0.0033494873164816
 162    0.0027348870379965
 163     0.001125020569251
 164     -0.10084794873593
 165    -0.050781850390831
 166     -0.02696332525122
 167     0.011907490056488
 168    -0.064062125393184
 169    -0.048199371649811
 170    -0.014262323649188
 171      0.03131665258241
 172      0.02792778639781
 173    -0.0022457520402876
 174    2.9052288190262e-05
 175    -0.0021539870343734
 176    0.00062315542422336
 177    -0.0022993189878693
 178    -0.022097890496706
 179    -0.0023101006440241
 180    -0.0015085600129908
 181    -0.00023166218072177
 182    0.0044353816546376
 183    -0.075475841423723
 184    -0.0099663384184122
 185    1.3058487523039e-05
 186    -0.0029363409585972
 187    -0.0078809766924132
 188     0.026502644160895
 189    0.0077549424925804
 190    0.0013044757978143
 191    0.00099078656981046
 192    0.0017520342761349
 193    -0.092169468579301
 194     0.001708742215565
 195    -0.0072914180705155
 196      0.10301170902926
 197     0.036811546055822
 198    0.0099600874511523
 199    -0.058114178883074
 200    -0.024462537544082
 201    -0.006099719443061
 202    -0.0011728723349764
 203    0.00072054489154821
 204    0.0026142659045046
 205    -0.0019739414418121
 206    0.0039367909805413
 207    -0.035633604807711
 208    -0.0062415293736674
 209    -0.0013562641557664
 210    0.00020934918307378
 211    -0.0047111483726218
 212     0.074271272825037
 213     0.012327728759992
 214    0.0015913359047803
 215    0.0059181067211356
 216    0.0022418190125321
 217    -0.055874319945056
 218    -0.011696982780326
 219    0.0023588688909683
 220    -0.0042993274114644
 221    0.0032226819090185
 222     0.019447911759191
 223    -0.087579655755007
 224    -0.038950483399393
 225    0.0064587336807981
 226    -0.015643616449096
 227     0.023784783314307
 228    -0.010268211159288
 229    -0.00050994559801908
 230    -0.012341104210885
 231    0.00079957952576177
 232    0.00043824275513043
 233    -0.00034845620442866
 234    0.00026712724100672
 235    -0.00045078286143594
 236    -0.041134986311903
 237    3.3322882219744e-05
 238    0.00059604249416055
 239    -0.0053565538347291
 240     -0.00132521882316
 241    -0.0031992278469062
 242    0.0038375684250036
 243    -0.00043558874608906
 244     0.001353431807374
 245    -0.0015757603678364
 246    -0.030466532262368
 247    -0.0018551590014444
 248    -0.0038546867537311
 249    0.0025026784090672
 250    0.0017969615140833
 251      0.33186552840058
 252    0.0094911971864986
 253      0.01743679078308
 254     0.040367790729665
 255    -0.0029446803794354
 256    -0.080655997109845
 257    -0.019231104199553
 258    0.00046703378989012
 259     0.041660281604343
 260    0.0025309748909146
 261    -0.00038264803893085
 262    0.00059213000372138
 263    -0.00032742026223391
 264    0.0022174028577646
 265     0.064457999832539
 266     0.011347492858267
 267    -0.0020391530572141
 268    -0.0045341540056598
 269    -0.0059745446632883
 270    -0.024573848727323
 271    -0.0039194040570123
 272    -0.00036193391672877
 273    -0.00056904355756322
 274    0.0028385285263798
 275     0.034978303434429
 276    0.0054886177599822
 277    0.0035361983268549
 278    0.0035517372261413
 279    0.0030188226740319
 280     -0.19577380684862
 281      0.14319438923613
 282     0.052830036324625
 283    -0.049315801375784
 284      0.01367220325512
 285    0.0052315062682003
 286     0.015632377786053
 287    -0.017047147584811
 288    -0.0019685899795198
 289    -0.0012921272388907
 290    0.00024848332391534
 291    -0.00053094898977894
 292    0.00037159371169506
 293    -0.0010075498770946
 294     0.031733239211281
 295    0.00033458423809123
 296    0.0021032222285201
 297    -0.0021821683366344
 298    -0.0053764101477071
 299     0.054669196293241
 300    0.0057359626807583
 301    -0.001602741222012
 302    -0.0062065830968749
 303    0.0052958240810082
 304     0.075440016382409
 305    0.0082229014632937
 306    -0.0046271628797305
 307    0.0081457155300093
 308    -0.0012861549051874
 309      -0.2686887719799
 310      0.04745139869838
 311    0.0099774174673961
 312    -0.0036775098288164
 313    -0.022405225779148
 314    -0.038215924309158
 315    0.0029614022824354
 316    0.0093591499097633
 317     0.024178384076506
 318    -0.0012673655024273
 319    -0.00058432834597611
 320    0.00023381351688866
 321    -0.0013329445559459
 322    -0.00058714610188977
 323     0.035292372439685
 324       0.0056688849102
 325    0.00071926207297104
 326    -0.0033404278040151
 327    0.00044883788757149
 328     -0.01729159220655
 329    -0.0054583582498508
 330    -0.0016432871199648
 331    0.00049261716988155
 332    -0.00048986630040234
 333    0.0003911376098088
 334    -0.0042885209151946
 335    0.00050500669225058
 336    0.0010144872642337
 337    0.0012259119488165
 338    -0.051132624073953
 339    -0.0018381495385038
 340    -0.0080101436686195
 341    -0.0042413219638824
 342     -0.04165445364421
 343     0.020209702902266
 344    0.0019937385421297
 345     0.021921829678111
 346    -0.0054792689301546
 347    -0.0012002949746725
 348    0.0012165981926288
 349    0.00030864285588434
 350     -0.00031094311225
 351    4.1333254148699e-06
 352     0.021983188400448
 353    0.0038712350929321
 354    -0.0016788392613136
 355    -0.00056826377309625
 356    -0.0019807386901954
 357    -0.028551699181213
 358    -0.0035474776227567
 359    -0.0015093400992542
 360    0.00023837758204729
 361    0.0025289435905517
 362     0.019112992112871
 363    0.0042079428461708
 364    0.0024129326931714
 365    0.00060014828207184
 366    0.00033200115286082
 Sym= A
 Ene=              65
 Spin= Alpha
 Occup=    1.00000
   1    -0.095321829646141
   2    -0.041957195513709
   3      0.10104282175142
   4    -0.030851520913162
   5    0.0026347340338552
   6      0.20937852360683
   7      0.15140879075912
   8    -0.019960489153446
   9     -0.07515561027869
  10     -0.38803259393692
  11    -0.043687722481612
  12      0.01326205475363
  13     0.026793249565183
  14    -0.013260202604672
  15    -0.00068814040706561
  16    -0.0010564086493959
  17    0.0026885265611657
  18    -0.00092439513433488
  19    -0.0015932917291598
  20    0.00055919128190313
  21    0.00054899923746901
  22    9.6671619265259e-05
  23    -0.00010919922172415
  24    0.0010285380961308
  25    -0.00072031248058612
  26    -8.2482533755514e-05
  27    0.0012478472409587
  28    0.00056238779065184
  29    -0.00058815838780097
  30    0.00099326789132871
  31    -0.00034111312830055
  32    -0.087041493065141
  33     0.098290436505064
  34     -0.50466013569117
  35     0.059428270708927
  36    -0.013762400528238
  37     0.093597121848842
  38     -0.13612258381117
  39      -0.1036254943837
  40     -0.22494187336739
  41      0.18816291285272
  42     0.065814833468697
  43     0.025234503298584
  44    -0.014466668712627
  45    0.0031697197488972
  46    -0.0003662061685602
  47    -0.00028104545078603
  48    0.00084113462775963
  49    -6.7140238256229e-05
  50    -0.00039640624022451
  51    0.0004196029140912
  52    0.00039962954255557
  53    -0.0011902887772304
  54    0.0011137523293475
  55    0.0010553361989544
  56    0.00027735683232289
  57    -0.00011895380194732
  58    -0.00094058844316504
  59    0.00036511398035226
  60    0.0019460132716714
  61    -0.00084227964342202
  62    0.00064935108230961
  63    0.00099905244504692
  64    -0.008503019352143
  65    -0.017887413842576
  66    -0.0052785029507728
  67     0.011999448896048
  68    0.0079673805793791
  69    -0.0058566216581602
  70    0.0025534575729798
  71    0.0033586183037109
  72    0.00017178811590641
  73    0.00015451700022432
  74    -0.00025240658330657
  75    -0.00011255875015984
  76    0.00023279789320808
  77     0.026841164405073
  78     0.049624508038962
  79    -0.0021000821305563
  80    -0.053475259833206
  81    -0.024239446713734
  82     0.013425831555777
  83     0.034541180981619
  84     0.011663784446626
  85    -0.0036459892111844
  86    -0.00070296514952054
  87    -0.0010609076510462
  88    0.00040155485586927
  89    -5.9794413679175e-05
  90    -8.1471168309022e-05
  91     0.047792524111026
  92    0.0092869986332595
  93    -0.0041967546180383
  94    0.0032458638173811
  95    0.0032079634296417
  96    0.0094571479191065
  97    0.00057470106599214
  98    0.0011463940075927
  99    0.0016690584558328
 100    -0.0022969955721906
 101      0.03755306998326
 102      0.00479282368034
 103    0.0021469419700529
 104    -0.0047248459772143
 105    -0.00031269871016842
 106    -0.098285318669083
 107     0.051914513128332
 108    0.0090579805629875
 109     0.022425160848077
 110    -0.040322641561855
 111    -0.020488167987847
 112    -0.013586410950148
 113     0.016588381394318
 114     0.011198513884722
 115    -0.0020748999637702
 116    -0.00016002115353616
 117    -0.0005560974604581
 118    -0.00011245194803382
 119    -0.0016145228691596
 120     0.053820795789748
 121    0.0084265540818197
 122    0.0047596199283859
 123    -0.0025583242280235
 124    0.00016165241313639
 125    -0.014421649250043
 126    -0.0031931441526296
 127    -0.00070460530396588
 128    0.00072443526712488
 129    -0.00046885887279967
 130     0.016014241707695
 131    0.0033470110470029
 132    -0.0032634191324372
 133    0.00049857024338841
 134    0.0010655771127699
 135      0.27776838188565
 136      0.06485752768746
 137      0.03263655794113
 138    -0.056199964585743
 139     0.047803763372673
 140    -0.041410088720925
 141     0.027592827279321
 142    -0.024728015881437
 143     0.015225133732657
 144    0.00052295354605318
 145     0.002667607917729
 146    5.4365422960903e-06
 147    -0.0015225515461995
 148    -0.00023861057418866
 149     0.057574706962151
 150    0.0064000498803349
 151    0.00094066029991336
 152    0.0074784134314528
 153    0.0038518354519652
 154    -0.0061672419751774
 155    -0.0025317973890068
 156    0.0034465929777412
 157    -0.0016869660957917
 158    0.0015906160761962
 159     0.072448807651526
 160     0.013043912279327
 161    -0.0062340986433005
 162    -0.0040014732453009
 163    -0.005984764555463
 164     0.030100644632321
 165     0.058127339753565
 166     0.042543588083955
 167    -0.019120938185546
 168     0.060651349588294
 169     0.023091539698848
 170     0.023064131883283
 171    -0.031334098539456
 172    -0.0070250135578367
 173    0.0018432248092104
 174    -0.00023668483077386
 175     0.001275045943588
 176    -0.00030721432053852
 177    0.0025312220696561
 178      0.03059174378206
 179    0.0032641174220363
 180     0.002093714372832
 181    0.0010295899714021
 182    -0.0040372249883759
 183      0.05828933031899
 184    0.0082545974099185
 185    0.0001113036317249
 186    0.0024129903724956
 187    0.0063915778268986
 188     -0.02778238913467
 189    -0.0094787193959595
 190    -0.0013517911914849
 191    -0.00070739629789932
 192    -0.0017327465290267
 193    -0.039284684004465
 194     0.038804634576812
 195      0.02251160284117
 196    -0.059114233035777
 197    -0.066233205042162
 198     0.049766601359067
 199     0.027342816520733
 200     0.040036176728105
 201    -0.022216608262042
 202    0.0028076529084906
 203    -0.0030703810217714
 204    -0.0016601965898833
 205    0.0014059836553981
 206    -0.0013626505510131
 207     0.083858252472935
 208      0.01397822217153
 209    -0.0023095521782427
 210    -0.0011803386812383
 211    0.0080702704607391
 212    -0.048716477039123
 213    -0.0088993503209997
 214    -0.0013418556179655
 215    -0.0021385372731605
 216    -0.0035608370558923
 217    0.0050415488618308
 218    0.00082617746356448
 219    0.0015522262136059
 220      0.00283290003436
 221    -0.002550937096266
 222     0.072417365111902
 223    -0.052978978204098
 224    -0.020449219044334
 225    0.0017453210127733
 226    -0.023735781126752
 227    -0.027103625554554
 228    -0.0085972400465867
 229     0.013128238509134
 230     0.014628404841435
 231    0.00011589853488589
 232    -0.001120737535356
 233    0.00017213398658537
 234    0.0012753216162359
 235    -0.00048212621561267
 236    -0.035884422960215
 237    -0.0072822330929829
 238    0.00018915577850962
 239    -0.0040798631183632
 240    0.00099835316136863
 241    -0.029257048929874
 242    -0.0035900475242721
 243    -0.00095939524841322
 244    0.0020593526057903
 245    -0.0030732998550991
 246    0.0026067362498905
 247    0.0034213830108678
 248    5.2491610929794e-05
 249    0.00073160812530778
 250    0.0012879952366938
 251      0.18207575437075
 252    -0.039350164448726
 253    -0.011154462047274
 254    -0.033352501569698
 255     0.013192870107421
 256     0.071886494687765
 257     0.013639598872426
 258    -0.0067914040046779
 259    -0.036005031812204
 260    -0.0024697334572476
 261    0.00023639640562619
 262    -0.0010048332876185
 263    0.00020876646540864
 264    -0.0017126292312391
 265    -0.065431062775738
 266    -0.010985731408465
 267      0.00191744431021
 268    0.0035298286342544
 269    0.0053825976230433
 270     0.022463427996557
 271     0.002943951520703
 272    -0.00050202975729126
 273    0.00092486074420579
 274    -0.0023792652108835
 275    -0.027777748660336
 276    -0.0044306495804055
 277    -0.0020440481983909
 278    -0.0029455254531641
 279    -0.0026431863268718
 280     -0.20004286301559
 281    -0.035969031277711
 282    -0.026516158642244
 283     0.037908830624186
 284     0.018084854283197
 285     0.015436752608445
 286    -0.017379296310836
 287    -0.003526476445497
 288    -0.005308081571495
 289    6.532628297674e-05
 290    -0.00042418617493798
 291    -0.00021453725834937
 292    -0.00022290435374417
 293    -0.00029814446883654
 294     -0.03187338425623
 295    -0.0035215665452848
 296    -0.0016690318425482
 297    0.0014475902557334
 298    0.0044744373577533
 299    -0.028260569564894
 300    -0.0036651710533217
 301    0.00073584589034772
 302    0.0023651557832725
 303    -0.0040251591255097
 304    -0.021742761080448
 305    -0.0032939970948548
 306    0.0010936821913862
 307    -0.0038764386480755
 308    -0.00047320621058069
 309     -0.25691364376155
 310    -0.042182677327552
 311     -0.03614563789615
 312    -0.0042617861480378
 313     0.022421536886238
 314    0.0077128929592718
 315    -0.00082953099395524
 316    -0.0044750473910116
 317    -0.012223949677593
 318    0.00031114139406514
 319    0.00015729242110632
 320    0.00049723580701322
 321    0.0010138833066958
 322    0.00027207805183846
 323    -0.036839803654002
 324    -0.0040011377459928
 325    -0.00062756686136129
 326    0.0048874736333655
 327    0.0014277593284894
 328    -0.010722454479838
 329    0.0019131018873165
 330    -0.0013384097093647
 331    -0.002016523309375
 332    -0.0019826472624448
 333    -0.0098132517079717
 334    0.0017019204587017
 335    0.0024368795808283
 336    -0.0013698768970224
 337    -0.001130301176619
 338     -0.15466868989553
 339    -0.024073663567013
 340    -0.017008391783679
 341    -0.039461303835577
 342     0.012876368342087
 343     -0.03268251683865
 344     0.016854864493882
 345    -0.0031816801729774
 346      0.01983661053958
 347    0.00054216081664777
 348    -0.00086990895483159
 349    0.00061869246063232
 350    -0.00066408846310953
 351    0.0018771367122197
 352    0.0087783548603829
 353    0.0041701927577313
 354    0.0015834926670134
 355    -0.0011407860162601
 356    0.00095440429744471
 357     0.003613352232357
 358    0.0019469649317095
 359    0.0015609306994049
 360    -0.00083686054787366
 361    0.0012520515527373
 362    -0.052559568533139
 363    -0.0077669511161251
 364    -0.0044566512220412
 365    0.0026750421225427
 366    -0.0026404234525993
 Sym= A
 Ene=              66
 Spin= Alpha
 Occup=    1.00000
   1     -0.15476914227002
   2     0.050645233918936
   3     -0.32084184061277
   4     0.024913133580501
   5    -0.00043966447914583
   6      0.23660024202462
   7     0.082114915037087
   8     0.035045708527126
   9     -0.14450550989477
  10      0.05209592629609
  11    -0.042965638172304
  12     0.021407359350316
  13    -0.0003226237469906
  14     0.011033626227265
  15    0.00027615110965503
  16    -0.0011837121029464
  17    0.00098179018277105
  18    -0.00058199357763979
  19    -0.0012875412175185
  20    0.0015382087425139
  21    -0.0010237073902203
  22    -0.0019197726621113
  23    0.0019316123653916
  24    -0.00024140032385261
  25    -0.00015567573934258
  26    -0.00085859939688025
  27    0.0002177722822803
  28    0.0012286100984263
  29    0.00034436515978967
  30    0.00084466887012135
  31    0.0005635784888217
  32     -0.10561828173294
  33     0.052913943654456
  34    -0.025570381570962
  35    -0.0024620184471465
  36    0.00058683923367283
  37     -0.18585738030961
  38    -0.034061685815864
  39     0.044601343043809
  40       0.3224497647386
  41      0.18419855410848
  42     -0.18954208400919
  43    -0.042743588113484
  44    -0.021698468202902
  45     0.020373663051969
  46    -0.00088175282226349
  47    0.0018351347972061
  48    7.3303728476055e-05
  49    0.00068085373537557
  50    0.0018341390186824
  51    -0.0010883524583817
  52    0.00027826835254489
  53    0.00089569469012724
  54    0.00043724845894845
  55    -0.0004502935841598
  56    0.00037242898703484
  57    0.00046564609054171
  58    -0.0011940736600424
  59    -0.001880539514231
  60    -0.0010695839156623
  61    -8.0886411334395e-05
  62    -0.00047537287120532
  63      0.14976962371682
  64    0.0058400512798676
  65     0.013660822278876
  66    0.0016844360505396
  67    -0.0096731060831687
  68    -0.0030508735935621
  69     0.003285489963805
  70    -0.0032266364652238
  71    -0.0062954084134038
  72    -7.1256990051298e-05
  73    -0.00016618198699666
  74     7.54371370991e-05
  75    -0.00032734587435459
  76    -0.00029750610641813
  77     0.033782163683841
  78     0.011590887815979
  79     0.011442973133636
  80     0.020687407684034
  81     0.076538378530255
  82    -0.021316508932332
  83    -0.015435247249486
  84    -0.041180175572703
  85    0.0081062001703688
  86    0.0024849215361511
  87    0.00071701335559555
  88    -0.00059502151242746
  89    0.0022020248209125
  90    -0.0011648138578929
  91    0.00065395181168152
  92    -0.00082766295624265
  93    -0.00058075254417116
  94    -0.0028239790670394
  95    0.00085152419869876
  96     0.035518433390432
  97    0.0054130321602362
  98    -0.0019452866863782
  99    -0.0016521629132794
 100    -0.0031266150534326
 101    -0.060065542409134
 102    -0.017539518709628
 103    -0.00047654986268159
 104    0.0049504486187502
 105    0.00028884928155109
 106    -0.019017130253118
 107     0.018122895141416
 108     0.014403989225166
 109    -0.032937668513057
 110    -0.035380387853176
 111     -0.05193167057897
 112     0.015127222863002
 113     0.018656541015914
 114     0.032113684101496
 115    -0.0025650079629055
 116    -0.00073888537515958
 117    -0.0012658940147999
 118    0.00069224857715271
 119    0.0007705022731614
 120    0.0069824943206596
 121    -0.0020281963136769
 122    0.0017064560649588
 123    0.00097056721038012
 124    0.0018759795213182
 125    -0.047505028257246
 126    -0.011482470451288
 127    0.00068697525280751
 128    -0.0012673564857447
 129    -0.0039792564732312
 130     0.040682937550042
 131    0.0053201770318891
 132    -0.0031784499313244
 133    -0.0017658332217554
 134    0.0023008296230505
 135      0.38029956951119
 136    -0.0085618012773129
 137    -0.017509192523287
 138     0.041016044512418
 139    -0.055156015122981
 140    -0.064840270916239
 141    -0.024252815410957
 142     0.023157250351217
 143      0.04484030172925
 144    0.0013973229669262
 145    -0.0014025170561276
 146    -0.0002462553594649
 147    0.0040234584034482
 148    0.00077664175504497
 149    -0.057008791177082
 150    -0.012103770872998
 151    -0.00039952092356073
 152    -0.0043927439650623
 153    0.0008172991083093
 154     0.060321382405243
 155     0.011902046782397
 156    0.0059732001029229
 157    0.0015620477366354
 158    -0.001694153267389
 159     0.025459025973333
 160    0.0037195270554706
 161    -0.003962537668203
 162    0.0016209346989486
 163    -0.0011528493459335
 164     -0.22758687458437
 165    -0.0037712811668858
 166    -0.023029160036718
 167    -0.0060899916195628
 168     0.097775038671914
 169     0.059458652045261
 170     -0.00622337364134
 171    -0.054511101006068
 172    -0.037116173103464
 173    0.0034786175075155
 174    -0.0002058076059717
 175    0.0027713248316206
 176    -0.0012522297540214
 177    0.0029719986263986
 178     0.011693234548454
 179    0.0036494174934218
 180    0.0011135192990306
 181    -0.0025629902647399
 182    -0.0027162174645168
 183       0.0758012923278
 184     0.014231844651899
 185    0.00063619110784242
 186    0.0011069026923356
 187    0.0063021343204719
 188    -0.066412150161561
 189       -0.011145506026
 190    -0.0047090596261541
 191    0.0032836496620119
 192    -0.0028720518444026
 193     -0.03840324702701
 194    -0.0037341888986955
 195     -0.01815809593192
 196    -0.044644732990582
 197     0.036644236075774
 198    -0.063420515748248
 199     0.026681659141943
 200    -0.025883734553871
 201     0.028373142083741
 202    -0.0018666987936173
 203    0.0026308688628069
 204    -0.00064612151018267
 205    0.00079823348374827
 206    -0.0021760333808158
 207     -0.04327296725947
 208    -0.0099550638884057
 209    0.0041441527562416
 210    0.00051859043229744
 211    -0.0024472158640341
 212    -0.014326118651066
 213     -0.00175001142701
 214    7.2722478402067e-07
 215    -0.0027218229623533
 216    0.0017997167369875
 217     0.064762812404673
 218     0.011800478719349
 219    -0.0047237195132863
 220    0.0029919388695815
 221    -0.0014667942633617
 222     0.063262009165975
 223    -0.0077373010533604
 224    -0.0087883161410301
 225    -0.030935929493922
 226    -0.00042655973621603
 227     0.015457811317148
 228     0.014615655829525
 229    0.0008024732009118
 230    -0.013123124653642
 231    0.00056240766457701
 232    0.00099920862380256
 233    -0.0004437130709548
 234    -0.00084466833939591
 235    0.00010232664455232
 236    -0.00051164319639741
 237    -0.0024588073550143
 238    0.00074973348364975
 239    -0.00012132928272137
 240    0.00029632068124782
 241    0.0040346624782945
 242    -0.00075190251163772
 243    0.0012212383140651
 244    0.00010431105703106
 245    -0.00050431498069811
 246    -0.027817426381824
 247    -0.0038251429099951
 248    -0.0016075692324959
 249    0.00073233332673951
 250    0.0018184887117109
 251     -0.20197015438753
 252     0.015346602840887
 253    -0.0084934348550358
 254      0.10020371306233
 255     0.011964245994558
 256     0.024047817046073
 257    -0.048854650703484
 258    -0.0065830280694228
 259    -0.012891958313587
 260    -0.0013462006736544
 261    -0.0011111867072981
 262    -0.0004266478731236
 263    0.0006272681255492
 264    0.0045587911117692
 265    -0.023148193112691
 266    -0.0052275626822068
 267    -0.003736696047617
 268    0.0011291035982315
 269    0.0022743051688163
 270     -0.05638259358103
 271    -0.0090806991767744
 272    0.0022073801878942
 273    -0.0055520307420004
 274    -0.0013834578651807
 275     0.076690932656439
 276     0.015361919497088
 277    0.0041728129967675
 278    0.0050776112155384
 279    -0.0015799538521461
 280      0.15793510562107
 281    -0.0035126507593341
 282     0.016346436579413
 283     0.014567207906373
 284    -0.0022829334781215
 285     -0.10614308131719
 286    -0.0099167467047393
 287    0.00092338765835734
 288     0.053223495086589
 289    0.0024453436989545
 290    0.0023152928676177
 291    0.0038978160622872
 292    -1.5696707513112e-06
 293    -0.00071988104573274
 294     0.079925965483631
 295     0.014110639707574
 296    -0.00024237662462215
 297    -0.0050204343648166
 298    -0.0060539896745366
 299    -0.058893117433927
 300    -0.012744907517628
 301    0.0025561540720036
 302    0.0051021840310198
 303    -7.6084368660481e-05
 304    -0.0033324054471272
 305    -0.0020759094517083
 306    -0.000660311072435
 307    0.00034508492338428
 308    0.0043807483906376
 309     0.098385405119357
 310    0.0070061356104299
 311     0.008605564893102
 312    -0.0085205323141555
 313    -0.0021834048443907
 314     0.027254310871139
 315    0.0091621344946814
 316    -0.0010505962620926
 317    -0.013037692716596
 318    0.00037960695599039
 319    -0.00042403048085299
 320    -0.00039413961954185
 321    0.00062958409345443
 322    0.00015400646520095
 323    -0.00046639883787909
 324    -0.00031978833500653
 325    -0.00011592311221406
 326    -0.00046747766103419
 327    -0.0011681616775357
 328     0.014183016069134
 329    0.0035545974011198
 330     0.001813249243922
 331    0.00087530882206808
 332    0.00093916074394237
 333     0.018421905807878
 334    0.0056570655659737
 335    -0.0024792392752706
 336    -0.00015375996215196
 337    -0.00010330112857799
 338     -0.19631665710287
 339    0.0065151389115321
 340    -0.0086450542857339
 341     0.078487108918821
 342     0.016376463693226
 343     0.054702322392655
 344     -0.03897587118188
 345    -0.0020381000631075
 346    -0.031470293242835
 347    -0.00040078601884008
 348    0.0012879304443274
 349    -0.0019154516415167
 350    0.0018713723166769
 351    -0.0033942191079702
 352    -0.061919079990097
 353    -0.011330974469336
 354    0.0025513458217489
 355    0.0058863926425393
 356    0.00069018142283822
 357    -0.0086855205266257
 358    -0.0012871296272753
 359    -0.0036716136501345
 360    -0.0012727655247551
 361    -0.00090122626191282
 362     0.065268153201219
 363     0.012677409673652
 364    0.0029714790126996
 365    -0.0048636545781805
 366    0.0018274355466053
 Sym= A
 Ene=              67
 Spin= Alpha
 Occup=    1.00000
   1     -0.14551460642263
   2    -0.066407842245269
   3      0.16162494917296
   4    -0.011490886245618
   5     0.006593499592568
   6      0.20240951018255
   7     0.039534490960782
   8    -0.022510295705546
   9      0.14367051868068
  10     0.076225447627798
  11      0.09624510576082
  12    -0.012220600269487
  13    -0.010410327062534
  14    -0.012548354419934
  15    0.00016041537211982
  16    -0.0017644276457678
  17    0.0020655836242336
  18    -0.0014981338087902
  19    -0.0023025266039315
  20    -0.0003298122066633
  21    -0.00043617286784481
  22    0.00039219473931837
  23    -0.00085835142734395
  24    -0.00090699163682752
  25    0.0012196511245286
  26    -0.0001587241188687
  27    -0.00036095667187228
  28    -0.00061949843990394
  29    -0.00043777913622206
  30    -3.5401688493054e-05
  31    -0.0011447474527141
  32    -0.071588184031717
  33     -0.10820838175984
  34       0.2801768448383
  35    -0.035493828457347
  36    0.0011777453369494
  37     0.074851563365049
  38     0.069813028307269
  39     -0.12400150935552
  40     -0.25553092000241
  41     -0.24067418060118
  42      0.15316784430706
  43     0.023965062684654
  44     0.025636868973094
  45    -0.028720762947233
  46    -0.00046558101143578
  47    0.0016528596768755
  48    -0.0018576526260737
  49    0.0021674136408231
  50    0.0020031582370385
  51    -0.00039606116083077
  52    -0.00034561755879183
  53    0.00093338529693292
  54    0.00087762826745883
  55    -0.00031220532993589
  56    9.5106190871777e-05
  57    -6.0550741380667e-05
  58     0.001285571552384
  59     0.001007050629136
  60    -0.0003376972375648
  61    -0.00037712619433172
  62    8.9166799873289e-05
  63    -0.030443884610335
  64    -0.013642925308255
  65    -0.0019179693302205
  66    0.0026695118560721
  67    0.00013048229355563
  68    -0.00090907417968065
  69     0.002821465639524
  70    -0.0046283759986194
  71     0.003627844113389
  72    0.00011015229238287
  73    -0.00029410499353742
  74    -0.00051533453946139
  75    0.00031571815424115
  76    -0.00026167523956365
  77    -0.081917604946695
  78     0.017305262276855
  79     0.007743901501497
  80    -0.061756211894109
  81     0.036699035987079
  82     0.070744239451978
  83      0.03123686951598
  84    -0.021906081724292
  85    -0.038705286157208
  86    -0.001220500509636
  87    -0.003193881775546
  88    0.0011091043981795
  89    0.0030965989839942
  90    -0.0010561689694448
  91      0.08430647670814
  92     0.016145962697901
  93    -0.0067191477430738
  94    0.0019526394793285
  95    0.0035011610202637
  96    -0.031812781725319
  97    -0.0067852831619146
  98    0.0033938433216821
  99    -0.0021688065138777
 100    0.0009251530210333
 101    -0.023901970874731
 102    -0.0027652776144936
 103    0.0023383459154408
 104    0.0013423338059895
 105    -0.0026852590980561
 106     0.050318435321873
 107     0.024426931785537
 108    0.0025407372330244
 109     0.031184298391051
 110    -0.054618347864034
 111    -0.008829303500352
 112    -0.015435242959217
 113     0.035711921382192
 114    0.0040644037967332
 115    -0.0022078237467286
 116    5.8547535072972e-05
 117    -0.00098074117501502
 118    -3.7024726637045e-05
 119    -0.0019614536018185
 120     0.058193025720422
 121    0.0056024457159327
 122    0.0044798615483996
 123    -0.0031461018141968
 124    -0.00038083420335882
 125    -0.015584540572614
 126    -0.0028276331916624
 127    -0.0014896022086241
 128    0.0012197361451157
 129    -0.00067989159188631
 130    0.0079196556983164
 131    0.0013712367160131
 132    -0.0023430501708877
 133    0.00087625843633068
 134    0.00040963122283501
 135     -0.15682593608672
 136    -0.0046935067494413
 137    0.0076816187176052
 138     0.032253883493388
 139     -0.03322480872001
 140    -0.00087565438298545
 141    -0.014564494476041
 142     0.023187568835497
 143    0.00016527683748936
 144    0.00045044786147375
 145    -0.0013141213660696
 146    -0.0001595447277517
 147    0.0017134138755526
 148    0.0002909328353129
 149    -0.031987159652476
 150    -0.0069974340149846
 151    -0.00078214907846362
 152    -0.0035183060342039
 153    -0.001001515418152
 154     0.022935630124122
 155    0.0044316110607952
 156    0.00084945390213403
 157    0.00088498870688076
 158    -0.00098542350791174
 159    -0.017306490139632
 160    -0.0048829647045352
 161    0.00077022101452147
 162    0.0014418669990236
 163    0.0021515337709237
 164     -0.20788583115875
 165     0.026195602624404
 166     0.001484464138187
 167    -0.060787085072953
 168     0.072399315804954
 169      0.10979109422644
 170     0.036734407811841
 171    -0.040084284770252
 172    -0.059705824523829
 173    0.0044609482329278
 174    0.0013375713607849
 175     0.005020275369087
 176    -0.0011148402863818
 177    0.0018831853594172
 178    -0.037112698806086
 179    -0.0099177786914794
 180    -0.00014110216507756
 181    -0.0058256299416163
 182    -0.00084831726761883
 183      0.11299434443129
 184     0.018311690641608
 185     0.002133313490085
 186    0.0045559774221359
 187    0.0086417732849968
 188    -0.062190384646162
 189    -0.0076662802343861
 190    -0.0027399377486098
 191    0.0032755258593647
 192    -0.0049381854065366
 193       0.1260138163049
 194    -0.036610137580125
 195    -0.0031952129987712
 196    -0.028472432851434
 197    -0.041159971390438
 198    -0.017053819008314
 199     0.020086544454413
 200     0.026232672994048
 201     0.010593742536364
 202    0.00079591626345925
 203    -0.00053605004532005
 204    -0.00096020265256162
 205    0.0010608999843639
 206    -0.0016138744428071
 207    -0.0014994050444166
 208    -0.0010312099288539
 209    0.0010640906846229
 210    0.0011609311848301
 211    -0.00012002909374768
 212    -0.049730320740227
 213    -0.0062590860298776
 214    -0.0032233690082292
 215    -0.0034039801897916
 216    -0.0014296448800878
 217    0.00083519936105052
 218    0.0015304619069283
 219    0.0010728093742176
 220    0.0013221324727249
 221    0.00082699727261716
 222      0.11754965654688
 223     0.045728673328063
 224     0.052869691901144
 225    -0.015255680367904
 226    -0.084712774939896
 227      0.13089376685982
 228     0.022622001934841
 229     0.047941184422184
 230    -0.062965371146463
 231    0.0048616370287635
 232    0.0050857771921166
 233    -0.0021417324590279
 234    0.0018332677599035
 235    -0.00058648283417314
 236    -0.052728639314054
 237    -0.018830146384921
 238    -8.254928689102e-05
 239    -0.0026354430144541
 240    -0.0049792495253465
 241      0.13382124201387
 242     0.020372261447444
 243    0.0051240980977526
 244    -0.0031688272317024
 245     0.011500566491194
 246    -0.041103618078319
 247    -0.0091193214461168
 248    -0.0035243845567085
 249    0.0039721266603836
 250    -0.0025024003515619
 251     0.031626524466656
 252    -0.0094356484278751
 253    0.0076782362646112
 254    -0.045401404900767
 255     0.018583125457083
 256    -0.031076487345038
 257     0.019309126189598
 258    -0.0097916659043305
 259     0.012919954777393
 260    0.00049663530429239
 261    0.00040470230034885
 262    -0.00010443374945712
 263    -0.00030099158555163
 264    -0.0020569827699124
 265      0.01467375978806
 266     0.005172459374014
 267     0.001699163973763
 268    -0.0018394744668028
 269    -0.00094802649486656
 270     0.035837008393527
 271     0.012503723008221
 272    -0.002288388887793
 273    0.0025258786801043
 274    0.0012292664691083
 275    -0.026742757207736
 276    -0.0066484475889819
 277    -0.00076968858552527
 278    -0.0026257368171458
 279     0.001852120872088
 280      0.14889036381219
 281    -0.077966416195187
 282    -0.040664825055273
 283    -0.0098684294337361
 284    -0.046236723408896
 285     0.037358059260416
 286     0.017640092304526
 287     0.024540280730055
 288    -0.011125683414876
 289    0.00028409498366345
 290    -0.001084702756094
 291    -0.0012591178523976
 292    -0.00036145653040476
 293    0.0019399659693449
 294    -0.033563129468073
 295    -0.0020173875104983
 296    7.9460681401396e-05
 297    0.0039608439253376
 298    0.0028990852564754
 299     0.027185276522371
 300     0.011552314319648
 301    -0.0018161242516644
 302    -0.0006311833930061
 303    -1.6449280080721e-05
 304     -0.05013404761234
 305    -0.0092947323113879
 306    0.0042922316208775
 307    -0.0035837057284623
 308    -0.00096023165522277
 309    -0.039967463329856
 310    -0.031223328880655
 311    -0.018018234313718
 312     -0.12580301919959
 313      -0.0303500369943
 314    -0.062368618093104
 315     0.063589192129251
 316     0.017403754074919
 317     0.034171441393376
 318    -0.0031096942009037
 319    -0.0063015830126316
 320    -0.00078358561642012
 321    7.6347901289011e-06
 322    -0.00014676777779371
 323    0.0070546684518413
 324    0.0031201220188866
 325    0.0047992916565872
 326    0.0008653319196189
 327    0.0020897399858772
 328     -0.12105114060561
 329    -0.019054748793401
 330    -0.0063563164260784
 331    -0.0028447788389102
 332    -0.0089920590646569
 333     0.064964999632449
 334     0.018397248090718
 335    -0.0022763320879685
 336    0.0011207410805603
 337    0.0054587281443629
 338     -0.22331146963873
 339     0.035395706912678
 340    0.0054401508468116
 341     0.016165187992267
 342    -0.016483012669041
 343    -0.026512391551871
 344       -0.011367430719
 345    0.0023901238918203
 346     0.016898116070578
 347    0.00068839685714812
 348    -0.00055563532250376
 349    -0.00018138387446074
 350    -4.4274287181573e-05
 351    0.00020221966876758
 352     0.015993461064748
 353    0.0041099158949615
 354    -0.0021685530232462
 355    -0.0009836228244604
 356    -2.7476376196586e-05
 357      0.02567423261972
 358    0.0047139791431686
 359    0.0010187319892243
 360    0.0016881373521723
 361    -0.001816362111333
 362     0.012139258425058
 363    0.0026921437097805
 364     0.001304666411807
 365    0.00017632760195496
 366     0.001479093692955
 Sym= A
 Ene=              68
 Spin= Alpha
 Occup=    1.00000
   1     -0.18718482479888
   2    -0.035580754893887
   3    -0.040756653716292
   4    0.0073654717749322
   5    -0.0053850769901746
   6      0.19679413361474
   7      0.13055247783014
   8    -0.005676478499745
   9      0.15711682790783
  10    -0.015013837384422
  11     0.017333707235313
  12    -0.018125859694918
  13    -0.0016982257469285
  14    0.0066398053477887
  15    0.00048216334796044
  16    0.00047909500368385
  17    -0.0031351006203693
  18    0.00012691650670954
  19    0.00052000766642838
  20    -0.00024238275348516
  21    -0.00076993607141187
  22    0.00069243950442327
  23    -0.00061324329256802
  24    -0.0010891611093476
  25    -0.00064756510884279
  26    0.0006777586566334
  27    0.00014277673058733
  28    -0.00036475972455161
  29    -0.000127557156682
  30    -0.0004509693972493
  31    0.00020688100994845
  32     -0.14836109001006
  33       0.0912222805079
  34     -0.15752683879688
  35    0.0051742560044329
  36    0.0012192843603701
  37    -0.027354375329588
  38    -0.015296919421069
  39    -0.058218588084897
  40     0.048115102429966
  41      0.12988686726947
  42    -0.081034568997601
  43    -0.0073566823863067
  44    -0.011132689398623
  45     0.015499329519394
  46    -4.048196130682e-05
  47    -0.00054124734417377
  48    0.0017535006752338
  49    -0.00041780389567808
  50    -0.00042051553582305
  51    0.00046491438291659
  52    0.0014434675172083
  53    -0.00078244123474389
  54    -0.00022380822602145
  55    0.0017700657700249
  56    9.1823138048049e-05
  57    -0.00045273091339054
  58    -0.00084782616064739
  59    -9.0180362167106e-05
  60    0.00060838034721579
  61    0.00021593121323092
  62    0.00040872077889213
  63    -0.036906082559012
  64    -0.0022375665048101
  65    -0.0085824727407286
  66    -0.0050498326413475
  67    0.00095329904863196
  68    -0.0012010378068992
  69    -0.0046099609942755
  70    0.0078448917318365
  71    -0.00081731742452263
  72    -0.00019220077264036
  73    0.00023205714272818
  74    3.4049842863005e-05
  75    0.0002594881792381
  76    0.00022948348669769
  77      -0.2775058351645
  78     0.034882399675447
  79     0.013404654804673
  80      0.04431880103826
  81    -0.062091808501192
  82    -0.052882382506913
  83    -0.028513114897909
  84     0.031473630972585
  85      0.02711675881002
  86    1.8766845417324e-05
  87    0.0025878340907116
  88    -0.00066033396216047
  89    -0.0034988855105112
  90     0.001463663827842
  91    -0.060737924972599
  92    -0.012587083392695
  93    0.0050433907779046
  94    -0.0001286878193542
  95    -0.0025593550722016
  96     0.025685518564106
  97    0.0046331806387794
  98    -0.0023509213906032
  99    0.0031095445838788
 100    -0.00084686359099823
 101     0.057068346344783
 102     0.010850577042208
 103    -0.0017170246616042
 104    -0.0045155979918087
 105    0.0024152455560484
 106      0.22978505226663
 107    -0.056702039178214
 108    -0.0066845594356698
 109     0.017051064766369
 110     0.081256525991011
 111     0.042741496486575
 112    -0.006804154279979
 113    -0.046361538769576
 114    -0.024012370732202
 115    0.0041423289356222
 116    0.00094187576172599
 117    0.0018588429373776
 118    -0.00061533791514919
 119    0.00010288021857849
 120    -0.051146099037328
 121    -0.0074827139506242
 122    -0.0054297038949223
 123    0.0010716709790177
 124    -0.0014908820341571
 125     0.048501476135735
 126     0.010769226355976
 127    -0.00015665328422283
 128    5.4414573567091e-06
 129      0.00386483882743
 130    -0.058989863622356
 131    -0.010726484241182
 132    0.0058475428480172
 133    0.0013539520208735
 134    -0.0022734433372138
 135     -0.29258702101428
 136     0.015479718103133
 137    -0.0060028676865306
 138    -0.026910935222201
 139     0.042135810851306
 140     0.032518049183509
 141     0.017222441961269
 142    -0.024548110632031
 143    -0.019224387768851
 144    -0.0011205165438639
 145    0.00093604637103261
 146    0.00034355230361724
 147    -0.0026019771578364
 148    -0.00034317828434526
 149     0.041738453402846
 150    0.0094960920695234
 151    1.1102983723991e-05
 152    0.0032870252734512
 153    -0.00022932232616809
 154    -0.033172332052884
 155    -0.0052094484094268
 156    -0.0031988587803229
 157    -0.0014102126419637
 158    0.00079317590554009
 159    -0.009509077971929
 160    -0.00036614988101637
 161    0.0020829665734995
 162    -0.00083608598590728
 163    0.00011383064580586
 164      -0.2135052722608
 165    -0.058687131412202
 166     -0.04109311707445
 167      0.04487037305879
 168    -0.053439601814851
 169     -0.11410744550596
 170    -0.035066975727122
 171     0.026125998801088
 172     0.058993193220889
 173    -0.0036690292386995
 174    -0.0019445795009383
 175    -0.0050433374273337
 176    0.00060784179698338
 177    -0.0012615523914263
 178     0.027998784919909
 179     0.010796777190371
 180    -9.0452304935433e-05
 181    0.0034951566979106
 182    0.0029990122139879
 183     -0.12430937117467
 184    -0.018039674110425
 185    -0.0011650839350703
 186    -0.0064796313300008
 187    -0.011167913715347
 188     0.025633029623408
 189     0.006997524215971
 190    -0.00021856835382497
 191    0.00090487012100707
 192    0.0044780025038465
 193      0.10810338747405
 194     0.042663248087354
 195     0.019774092824785
 196     0.024287448975978
 197     0.021926987597579
 198     0.020511820862071
 199    -0.014662667352844
 200    -0.0091163078530544
 201    -0.0082378082988837
 202    -9.1471195776483e-05
 203    -8.8201472019691e-05
 204    0.00070776249814235
 205    -0.00092733923175132
 206     0.001159921017173
 207     0.015850871042361
 208    0.0024145311774889
 209    -0.002377725928846
 210    -0.0015509125021976
 211    0.0015982899735864
 212     0.043478233313555
 213     0.004495821565065
 214    0.0035384642668773
 215    0.0039376643545406
 216    0.00099173161458278
 217    -0.0020078197149784
 218    -0.0027256885701474
 219    -0.0015525873821438
 220    -0.00096437298098847
 221    -0.0010745112011883
 222      0.24014190203912
 223    -0.043473472683526
 224    -0.027991995207285
 225    0.0091278874762405
 226     0.046882273376969
 227     -0.05176922681467
 228    -0.013274888561738
 229    -0.026883153453819
 230     0.022675579047076
 231    -0.0022695439284222
 232    -0.002011905317738
 233    0.00097456425575468
 234    -0.0011116827931567
 235    0.00048856069737649
 236     0.028350837589564
 237      0.01122691115062
 238    4.9599739423388e-05
 239     0.001942446746575
 240    0.0019760216523381
 241    -0.060136286830366
 242    -0.0083785465391795
 243    -0.0021561675038296
 244    0.0010335281805487
 245    -0.0048909532718215
 246     0.011912883891306
 247    0.0033429332523893
 248     0.001337475922132
 249    -0.002071575337471
 250    0.0011251605663692
 251    -0.0027798453875853
 252    -0.016255508086434
 253    -0.0099990775567999
 254     0.012522145231056
 255    -0.019461298817245
 256    0.0041407657674726
 257    -0.0052991793329791
 258    0.0090787526317624
 259    0.0016448249303994
 260    0.00042721074026586
 261    -5.5970491949884e-05
 262    0.0005269607766886
 263    2.8021888657922e-05
 264    0.00061001870990494
 265    -0.0014478158211781
 266    0.00034221243933522
 267    -0.00044839156130517
 268    0.0011246909448508
 269    0.00022540677243582
 270    -0.023103084572975
 271    -0.0083092144126733
 272    0.0021766164116201
 273    -0.0012229344655408
 274    -0.0001824307206758
 275    -0.0050013178060256
 276    -1.707914250938e-05
 277    -0.0013371050558962
 278    0.00014582294589172
 279    -0.00042751536861298
 280      0.28553423120704
 281     0.038906030895098
 282     0.030345494000083
 283    -0.0035987426239747
 284    0.0022769484822509
 285     0.027014946473112
 286    -0.0057064641286699
 287     -0.00145191744637
 288    -0.021142824137731
 289    -0.00087151545394856
 290    -0.00052926348130029
 291    -0.0010914846272034
 292    0.00020206606939088
 293    0.00041995315197215
 294    -0.0039846696683146
 295    -0.004801482712575
 296    0.00054769490032747
 297    -0.00051297336469691
 298    -0.0014114541461804
 299     0.029061411655823
 300    0.0011816131804305
 301    -0.0012965797631065
 302    -0.0032274795313221
 303    0.0023813886300783
 304     0.019169704980223
 305    0.0033856302071119
 306    -0.0017821509800939
 307    0.0027534838306762
 308    -0.0011776256389535
 309     -0.08191930527097
 310     0.015020183953383
 311    0.0065207804207443
 312      0.11214287968118
 313    -0.021863537664815
 314     0.015124199798152
 315    -0.058126521294369
 316     0.012602981721309
 317    -0.0081854569587154
 318    0.00094046872494278
 319    0.0050314446672627
 320    0.00080108011204407
 321    -0.0024810818808088
 322    -0.00053929857035595
 323     0.033313645599593
 324    0.0058616676279143
 325    -0.0031381374341134
 326    -0.0036284227959672
 327    -0.0013527146709395
 328     0.068770415874269
 329     0.012907957306176
 330    0.0019560046350589
 331    0.0027812790732255
 332    0.0058071193783235
 333    -0.078167451735966
 334    -0.018944133041779
 335    0.0048210089014645
 336    0.00087597329051921
 337    -0.0043318386432414
 338     -0.20798651997414
 339    -0.042011980822437
 340    -0.024717040657862
 341    0.0026348669879909
 342     0.032742481119717
 343      -0.0199546006687
 344    -0.003817988586506
 345    -0.011493855122671
 346     0.012204541583599
 347    0.0011084949373387
 348    -0.0010680633813746
 349    -0.00057859607749924
 350    0.0002849337516217
 351    0.00021310879083265
 352    -0.033852729334715
 353    -0.0040476701165518
 354    0.0034016838680729
 355      0.00283156097382
 356    0.0021387890669233
 357    0.0086571176095581
 358    0.0048200320439098
 359    0.00017406287890953
 360    -0.0016266682696414
 361    0.00050969022932453
 362    -0.033654971798759
 363    -0.0035149044926086
 364    -0.004335476547025
 365    0.00098898088284945
 366    -0.0020961289601769
 Sym= A
 Ene=              69
 Spin= Alpha
 Occup=    1.00000
   1     -0.52171517596382
   2    -0.0083015095813516
   3    0.0041003570479663
   4    -0.0036042831935803
   5    -0.00073298952662581
   6    0.0004597818686894
   7    -0.001454926241305
   8    -0.00061516138056584
   9    -0.0015086522824823
  10    0.0042171064212505
  11      0.00174455119624
  12    0.00087734034027373
  13    -0.0008204394085516
  14    -0.00063847302575822
  15    -1.0964045207692e-05
  16    1.7064750258556e-05
  17    -9.5002382756102e-06
  18    9.8400546697788e-05
  19    4.2694261395072e-05
  20    2.4586448894316e-06
  21    -2.3223866175996e-06
  22    -3.7501404492355e-05
  23    4.1649223039457e-05
  24    4.8300059320352e-06
  25    4.2517882578336e-05
  26    1.2143444903049e-05
  27    -9.6850735566106e-06
  28    5.7423737050496e-05
  29    7.671191751518e-05
  30    -5.0803138989631e-05
  31    2.118228520948e-06
  32       0.8474440978273
  33     0.013009430758759
  34    -0.0053112429460887
  35    0.0059768826952406
  36    0.00060524407213489
  37    0.0003302684633514
  38    -0.00079830099135228
  39    -0.00011118540593157
  40    -0.00098357970089385
  41    0.0026736677479317
  42    0.00051851715801916
  43    0.00067096827970824
  44    -0.0004900262406593
  45    -0.00042782289079701
  46    -4.1720948115459e-05
  47    2.6746332819126e-05
  48    6.4254144416308e-05
  49    -3.2830462651885e-05
  50    3.8063693310338e-08
  51    -7.3493524536988e-07
  52    1.7363552980089e-05
  53    4.9815605358763e-06
  54    -2.5662502790284e-05
  55    2.1093951762207e-05
  56    3.8907793779911e-05
  57    1.110990641994e-05
  58    -6.7478573888782e-06
  59    5.3919612047531e-05
  60    7.0444982070107e-05
  61    -4.7535720842991e-05
  62    2.0864608784663e-06
  63    0.00012329942283243
  64    0.00031429040316795
  65    -0.00021809890598347
  66    -0.00029015127353562
  67    1.4546394264308e-05
  68    0.0001980794697357
  69    0.00020228283843617
  70    -0.00093498992394463
  71    -0.00048154931718776
  72    -7.6757047540952e-07
  73    -2.2161434639089e-06
  74    4.574069692211e-06
  75    -8.1245899908624e-07
  76    -3.3132007386027e-06
  77    0.00012585457046559
  78    9.1891136506943e-05
  79    0.0019648020293817
  80    0.0028673816708927
  81    -0.00042881661824977
  82    -0.00072185362137055
  83    -0.0027382461861189
  84    -0.00011365906297053
  85    7.842971246737e-05
  86    -8.2130635492427e-06
  87    9.8556384227953e-05
  88    -1.3244059843832e-05
  89    -5.4261156614344e-05
  90    5.7853284035744e-05
  91    -0.0021049311540106
  92    -0.00018699388982085
  93    0.00014360282523957
  94    -3.948060376034e-05
  95    -9.4847922809448e-05
  96    7.2036972877403e-05
  97    0.00021538604194898
  98    -5.3066562419909e-05
  99    3.1908192288794e-05
 100    2.030181552475e-05
 101    0.00043378111827058
 102    0.00014742873615379
 103    -4.3726992664209e-05
 104    -2.1148633152058e-05
 105    2.8208756656262e-05
 106    0.00059857671359246
 107    0.0011170836465339
 108     0.002361069751839
 109    6.482782404473e-05
 110    -0.00052655378147441
 111    -0.0023808059990599
 112    -0.00014507972256023
 113    -0.00043627497248686
 114    0.0024053196080647
 115    -6.6311998770301e-05
 116    -1.6232797342373e-05
 117    -8.6216605888908e-05
 118    -5.7560181216673e-06
 119    -3.172929690706e-05
 120    0.00088563759379893
 121    0.00017672844021526
 122    9.4940907287588e-05
 123    -3.3177493409287e-05
 124    5.9796568459074e-06
 125    -0.0014504606853864
 126    -0.0001268101552799
 127    -1.1158930333878e-05
 128    -8.6447629883675e-06
 129    -9.734190754113e-05
 130    0.00048677482304368
 131    0.00024000762473341
 132    -8.1460305236615e-05
 133    -8.5602551843917e-06
 134    4.1200348591933e-05
 135    -0.00012731161444254
 136    -0.00033784950398702
 137    0.0011739998248916
 138    -0.00060277705510854
 139    -0.0012412858950032
 140    -0.00033797714041916
 141    0.00026617890907746
 142    0.0013071882712082
 143    -0.00045622552215589
 144    4.9391686305028e-05
 145    2.7586323615062e-05
 146    -3.9314531778978e-05
 147    3.7722146837358e-05
 148    1.260802766054e-05
 149    -0.0010140436512684
 150    6.3990674939502e-05
 151    3.1654595531748e-05
 152    -8.46114367679e-05
 153    2.7608264871756e-05
 154    -0.00030543939692532
 155    7.3381664120457e-05
 156    -1.0875892618633e-05
 157    -2.6197990608711e-06
 158    5.5869778194681e-05
 159    0.00071399094209266
 160    0.00037336211614578
 161    -5.0272271122587e-05
 162    -7.4924247476787e-06
 163    -3.8522152113429e-05
 164    -0.00025033632873472
 165    -0.00087527347090615
 166    0.0011686544972635
 167    -0.00043446459438887
 168    -6.3148932369804e-05
 169    -0.0008944351557307
 170    0.00098846005605755
 171    0.00045948323279962
 172    0.00084629268628483
 173    -3.8688536260611e-05
 174    4.1758632748707e-06
 175    -2.2479702807405e-05
 176    2.5324198287635e-05
 177    3.605227950361e-05
 178    8.5549932789174e-05
 179    0.00025368720532574
 180    -1.4222158143841e-05
 181    -1.0057576175985e-05
 182    -9.3516672613321e-06
 183    -0.00085604753073563
 184    9.9822815737799e-05
 185    -2.8507549365854e-05
 186    -5.8127470977295e-05
 187    -5.9358504256444e-05
 188    -0.00053250586461312
 189    5.1259427856367e-05
 190    -6.0972204231868e-05
 191    2.6412966196137e-05
 192    -1.3703642503575e-05
 193    0.00027900842075989
 194    0.00021320601581804
 195    0.0022276298076553
 196    0.00095251902021698
 197    -0.0027797014680173
 198    -0.0018112030124197
 199    -0.0011867999684914
 200    0.0025122394973678
 201    0.0016890164155552
 202    6.9724947273081e-06
 203    -2.760461877856e-05
 204    2.1701387871261e-05
 205    -5.3515291067438e-06
 206    -4.862105420215e-05
 207    -0.00064855725771812
 208    -7.4464474595158e-06
 209    3.3647264270425e-05
 210    7.5149501693466e-05
 211    -3.0749001554777e-05
 212    -0.0014256340149045
 213    -0.00013415995659386
 214    -0.00010231814741888
 215    -9.356224081943e-05
 216    -1.5322350853132e-05
 217    -0.00062179303823221
 218    2.1157858177295e-05
 219    5.026844702412e-05
 220    2.0841100810553e-05
 221    7.0510010631339e-05
 222    -0.00034434039151072
 223    -0.00043512527570246
 224    -0.0025685625724035
 225    0.0025191261995288
 226    -0.00082859319939727
 227    -0.00079397576877998
 228    -0.0028468302362085
 229    -8.4617706687616e-05
 230    1.0654563053151e-06
 231    2.6872677979835e-05
 232    -0.00010752776605356
 233    -1.5296233669983e-06
 234    5.9154020163664e-05
 235    -6.405307746925e-05
 236    -0.00098639313865347
 237    -0.00037994606801516
 238    -2.3979675963393e-05
 239    -9.3527505253444e-05
 240    3.278969505879e-05
 241    -0.00011619428166472
 242    -0.00026633853360619
 243    -3.2543490385835e-05
 244    6.5619490447642e-05
 245    6.8572137155505e-06
 246    0.0018751424396982
 247    0.00011040965736017
 248    0.00012816436968891
 249    6.5012337210545e-06
 250    -7.2080286589551e-05
 251    -0.00012811376940215
 252    -7.1111497318265e-05
 253    -0.0026932874294777
 254    0.00022674876910798
 255    -0.00034926234974284
 256    -0.0027284723046901
 257    -0.00019128362861232
 258    -0.00078782041696314
 259    0.0028510364465749
 260    6.6848358196218e-05
 261    4.6601734194841e-06
 262    0.00010619465896199
 263    1.0644850517354e-05
 264    2.4354453411594e-05
 265    0.0019508751170328
 266    0.00012539586264938
 267    -1.7072680779836e-05
 268    -3.8167257025488e-05
 269    -0.00015946286307586
 270    -0.00052141188778349
 271    -0.00027494653092089
 272    5.4859854888061e-05
 273    -1.8848202800209e-06
 274    2.5851927489655e-05
 275    -6.7262398694668e-05
 276    -0.00023240322919132
 277    -3.3049714507882e-05
 278    3.1396911670736e-05
 279    3.2828255504515e-05
 280    -2.8348087202961e-05
 281    0.00024853171454735
 282    -0.0019699048680539
 283    5.8273253105486e-06
 284    4.7125105124165e-05
 285    -0.0010637980510478
 286    0.0011368113595239
 287    0.00046707207276776
 288    0.0010623509668573
 289    5.4836278223404e-05
 290    -2.0429756154396e-06
 291    3.3408442808201e-05
 292    -3.7305394670589e-05
 293    -4.6454472157704e-05
 294    0.00075459206645443
 295    -0.00013141646849547
 296    -5.7573374114839e-05
 297    -4.3494245653484e-05
 298    -3.3186639095309e-05
 299    -0.00057549444093841
 300    -0.0003516226867644
 301    -1.767062757085e-05
 302    3.9002073319583e-05
 303    -5.9154410840569e-05
 304    0.00012228365413046
 305    -0.00023399414619156
 306    -3.8179679031611e-05
 307    -3.654540063214e-05
 308    2.414512266669e-06
 309    0.00036262916251208
 310    0.0010533758205691
 311    -0.0015985674638882
 312    -0.00084742030726112
 313    -0.001495802505861
 314    -0.00039517444339892
 315    0.00044591436579422
 316    0.0016336897674517
 317    -0.00072673329373646
 318    -7.2722318581575e-05
 319    -4.3623459579964e-05
 320    4.6578629504715e-05
 321    -3.2577817260265e-05
 322    -2.1531134664856e-05
 323    0.0013616726020326
 324    -8.3700915451108e-05
 325     4.90314869435e-05
 326    -0.0001266357414306
 327    3.412013185447e-05
 328    -0.00075143766508423
 329    -0.00044988020793856
 330    -4.3044813112782e-05
 331    -1.1624469523946e-05
 332    -2.379791013344e-05
 333    0.00072854075660979
 334    -0.00012022708201877
 335    -4.9264163890158e-05
 336    5.1049638274361e-06
 337    8.617036817765e-05
 338    -0.00024387736333488
 339    -2.3877559519788e-06
 340    -0.0030570985481764
 341    0.00099259203405326
 342    -0.0028730611920272
 343    -0.0018246286838351
 344    -0.0014416864299248
 345    0.0029424447660092
 346     0.001970401265481
 347    -7.1518203209865e-06
 348    3.6538726110622e-05
 349    -3.4379495448608e-05
 350    1.0518705011293e-05
 351    6.0092268731574e-05
 352    0.0015014780402964
 353    6.8280183903617e-05
 354    -8.8973361548615e-05
 355    -0.00010751060960501
 356    -2.4004624124905e-05
 357    0.00069870850092356
 358    -5.2623763684326e-05
 359    4.2369780287191e-05
 360    5.5883777970347e-05
 361    -3.7796850881433e-05
 362    0.00070635438268522
 363    -8.1217610642983e-05
 364      6.0153974405e-05
 365    6.9950923725504e-06
 366    5.8811620763998e-05
