[Molden Format]
made by pyscf v[2.11.0]
[Atoms] (AU)
Cr   1   24     1.56143912275337    -2.46507591990239    -1.82404491365355
Cr   2   24    -1.56139565905251     2.46513072196000     1.82399011159594
O   3   8     0.00002078698737     0.00002834589187    -0.00002645616574
N   4   7     5.12832174930954    -1.10581670549011    -0.60767356069801
H   5   1     6.65216855026694    -1.66292686427314    -1.66487895135981
H   6   1     5.63710405218294    -1.59213394419468     1.18765885421890
H   7   1     5.20084187906585     0.81566059741989    -0.65509245834172
N   8   7     1.71230729763415    -0.02251608677419    -4.99594076510539
H   9   1     0.29795878723855     1.27247165241550    -4.90823668593820
H   10   1     1.50271021425414    -0.85583806455427    -6.73026148236459
H   11   1     3.34039895052705     0.99863710888315    -5.18656310846864
N   12   7     1.41057094787259    -4.90763575303059     1.34785282752440
H   13   1     1.64193389675534    -6.79355407945465     0.97314659318890
H   14   1    -0.29048681014202    -4.81040367474334     2.24006056107205
H   15   1     2.72468082571676    -4.56691435331926     2.71738081369757
N   16   7    -2.00544350380280    -3.82433513431467    -3.04041437688297
H   17   1    -2.87205678671934    -5.05516478184926    -1.83221042023780
H   18   1    -2.03637832046193    -4.76397121413665    -4.73247136936628
H   19   1    -3.24475802163669    -2.37551046050250    -3.28123540501917
N   20   7     3.37923471211299    -5.33493873459111    -3.94755661599306
H   21   1     4.17102617885350    -4.76109883042731    -5.61685374703210
H   22   1     2.26176595533881    -6.82326057413281    -4.47610923358166
H   23   1     4.85383336053810    -6.19899521806112    -3.03922195969837
N   24   7    -5.12827828560868     1.10587339727385     0.60762064836653
H   25   1    -5.15408816501799    -0.81544705836782     0.54662784797006
H   26   1    -5.69743166898356     1.68113626520945    -1.14337690194197
H   27   1    -6.63528195761783     1.56841410187914     1.73267665553083
N   28   7    -1.71226383393328     0.02257088883181     4.99588785277390
H   29   1    -1.62991523860311     0.86667375415253     6.73575491620870
H   30   1    -0.22416876152653    -1.19157625647512     4.98456461383551
H   31   1    -3.28782110056328    -1.08746368536834     5.11339858210385
N   32   7     2.00548696750367     3.82438993637228     3.04035957482536
H   33   1     2.05186651577887     4.68410571893416     4.77402266739321
H   34   1     2.83712330958063     5.12208376337235     1.87805706574587
H   35   1     3.26582090902109     2.38241174030942     3.19051154350492
N   36   7    -1.41052748417173     4.90769055508820    -1.34790762958202
H   37   1    -1.75003190025884     6.78104976168840    -0.99229329828299
H   38   1    -2.65834387984003     4.49309409198925    -2.75785496783350
H   39   1     0.32278033988471     4.89894112313146    -2.18344058692784
N   40   7    -3.37919124841212     5.33499353664873     3.94750181393545
H   41   1    -2.26357064378777     6.83195331430581     4.45515784003860
H   42   1    -4.15358022727151     4.76963661305810     5.62761006813313
H   43   1    -4.86681766873998     6.18449345978121     3.04686590187224
[GTO]
1 0
 s    6 1.00
          51528.086349  0.0017695545768669
          7737.2103487   0.013556436258096
           1760.374847   0.067162645785071
          496.87706544    0.23295905918518
          161.46520598    0.47040576982722
          55.466352268    0.35733072606876
 s    3 1.00
          107.54732999   -0.10605255446629
          12.408671897    0.62543981484169
          5.0423628826    0.44878820793655
 s    3 1.00
          8.5461640165   -0.21819012081133
          1.3900441221    0.70422525667731
         0.56066602876    0.42488555412558
 s    1 1.00
        0.071483705972                   1
 s    1 1.00
        0.028250687604                   1
 p    5 1.00
          640.48536096  0.0093555063746755
          150.69711194   0.068993338492216
          47.503755296     0.2634118959318
          16.934120165    0.51034501651775
           6.240968059    0.33195512953954
 p    3 1.00
          3.0885463206    0.32917682676976
          1.1791047769    0.55491385190365
         0.43369774432    0.23818412855984
 p    1 1.00
              0.120675                   1
 d    4 1.00
          27.559479426   0.036950140313562
          7.4687020327    0.18821519783039
          2.4345903574    0.44641244239929
         0.78244754808     0.5681617303244
 d    1 1.00
         0.21995774311                   1
 f    1 1.00
                 1.147                   1

2 0
 s    6 1.00
          51528.086349  0.0017695545768669
          7737.2103487   0.013556436258096
           1760.374847   0.067162645785071
          496.87706544    0.23295905918518
          161.46520598    0.47040576982722
          55.466352268    0.35733072606876
 s    3 1.00
          107.54732999   -0.10605255446629
          12.408671897    0.62543981484169
          5.0423628826    0.44878820793655
 s    3 1.00
          8.5461640165   -0.21819012081133
          1.3900441221    0.70422525667731
         0.56066602876    0.42488555412558
 s    1 1.00
        0.071483705972                   1
 s    1 1.00
        0.028250687604                   1
 p    5 1.00
          640.48536096  0.0093555063746755
          150.69711194   0.068993338492216
          47.503755296     0.2634118959318
          16.934120165    0.51034501651775
           6.240968059    0.33195512953954
 p    3 1.00
          3.0885463206    0.32917682676976
          1.1791047769    0.55491385190365
         0.43369774432    0.23818412855984
 p    1 1.00
              0.120675                   1
 d    4 1.00
          27.559479426   0.036950140313562
          7.4687020327    0.18821519783039
          2.4345903574    0.44641244239929
         0.78244754808     0.5681617303244
 d    1 1.00
         0.21995774311                   1
 f    1 1.00
                 1.147                   1

3 0
 s    5 1.00
          2266.1767785  -0.0053893503921743
          340.87010191   -0.04023472138896
          77.363135167   -0.18008184205526
           21.47964494   -0.46828857657651
          6.6589433124   -0.44692617160187
 s    1 1.00
         0.80975975668                   1
 s    1 1.00
         0.25530772234                   1
 p    3 1.00
          17.721504317   0.062630248763161
           3.863550544    0.33331138482352
          1.0480920883    0.74148638308122
 p    1 1.00
         0.27641544411                   1
 d    1 1.00
                   1.2                   1

4 0
 s    5 1.00
          1712.8415853  -0.0054477995804909
          257.64812677  -0.040627174632423
          58.458245853   -0.18111962250584
          16.198367905   -0.46843975563173
          5.0052600809   -0.44616846289231
 s    1 1.00
         0.58731856571                   1
 s    1 1.00
         0.18764592253                   1
 p    3 1.00
          13.571470233  -0.058848116969522
          2.9257372874   -0.32024624762471
         0.79927750754   -0.75328226520436
 p    1 1.00
         0.21954348034                   1
 d    1 1.00
                     1                   1

5 0
 s    3 1.00
             13.010701   0.033485484812989
             1.9622572    0.23472187088125
            0.44453796    0.81377028525955
 s    1 1.00
            0.12194962                   1
 p    1 1.00
                   0.8                   1

6 0
 s    3 1.00
             13.010701   0.033485484812989
             1.9622572    0.23472187088125
            0.44453796    0.81377028525955
 s    1 1.00
            0.12194962                   1
 p    1 1.00
                   0.8                   1

7 0
 s    3 1.00
             13.010701   0.033485484812989
             1.9622572    0.23472187088125
            0.44453796    0.81377028525955
 s    1 1.00
            0.12194962                   1
 p    1 1.00
                   0.8                   1

8 0
 s    5 1.00
          1712.8415853  -0.0054477995804909
          257.64812677  -0.040627174632423
          58.458245853   -0.18111962250584
          16.198367905   -0.46843975563173
          5.0052600809   -0.44616846289231
 s    1 1.00
         0.58731856571                   1
 s    1 1.00
         0.18764592253                   1
 p    3 1.00
          13.571470233  -0.058848116969522
          2.9257372874   -0.32024624762471
         0.79927750754   -0.75328226520436
 p    1 1.00
         0.21954348034                   1
 d    1 1.00
                     1                   1

9 0
 s    3 1.00
             13.010701   0.033485484812989
             1.9622572    0.23472187088125
            0.44453796    0.81377028525955
 s    1 1.00
            0.12194962                   1
 p    1 1.00
                   0.8                   1

10 0
 s    3 1.00
             13.010701   0.033485484812989
             1.9622572    0.23472187088125
            0.44453796    0.81377028525955
 s    1 1.00
            0.12194962                   1
 p    1 1.00
                   0.8                   1

11 0
 s    3 1.00
             13.010701   0.033485484812989
             1.9622572    0.23472187088125
            0.44453796    0.81377028525955
 s    1 1.00
            0.12194962                   1
 p    1 1.00
                   0.8                   1

12 0
 s    5 1.00
          1712.8415853  -0.0054477995804909
          257.64812677  -0.040627174632423
          58.458245853   -0.18111962250584
          16.198367905   -0.46843975563173
          5.0052600809   -0.44616846289231
 s    1 1.00
         0.58731856571                   1
 s    1 1.00
         0.18764592253                   1
 p    3 1.00
          13.571470233  -0.058848116969522
          2.9257372874   -0.32024624762471
         0.79927750754   -0.75328226520436
 p    1 1.00
         0.21954348034                   1
 d    1 1.00
                     1                   1

13 0
 s    3 1.00
             13.010701   0.033485484812989
             1.9622572    0.23472187088125
            0.44453796    0.81377028525955
 s    1 1.00
            0.12194962                   1
 p    1 1.00
                   0.8                   1

14 0
 s    3 1.00
             13.010701   0.033485484812989
             1.9622572    0.23472187088125
            0.44453796    0.81377028525955
 s    1 1.00
            0.12194962                   1
 p    1 1.00
                   0.8                   1

15 0
 s    3 1.00
             13.010701   0.033485484812989
             1.9622572    0.23472187088125
            0.44453796    0.81377028525955
 s    1 1.00
            0.12194962                   1
 p    1 1.00
                   0.8                   1

16 0
 s    5 1.00
          1712.8415853  -0.0054477995804909
          257.64812677  -0.040627174632423
          58.458245853   -0.18111962250584
          16.198367905   -0.46843975563173
          5.0052600809   -0.44616846289231
 s    1 1.00
         0.58731856571                   1
 s    1 1.00
         0.18764592253                   1
 p    3 1.00
          13.571470233  -0.058848116969522
          2.9257372874   -0.32024624762471
         0.79927750754   -0.75328226520436
 p    1 1.00
         0.21954348034                   1
 d    1 1.00
                     1                   1

17 0
 s    3 1.00
             13.010701   0.033485484812989
             1.9622572    0.23472187088125
            0.44453796    0.81377028525955
 s    1 1.00
            0.12194962                   1
 p    1 1.00
                   0.8                   1

18 0
 s    3 1.00
             13.010701   0.033485484812989
             1.9622572    0.23472187088125
            0.44453796    0.81377028525955
 s    1 1.00
            0.12194962                   1
 p    1 1.00
                   0.8                   1

19 0
 s    3 1.00
             13.010701   0.033485484812989
             1.9622572    0.23472187088125
            0.44453796    0.81377028525955
 s    1 1.00
            0.12194962                   1
 p    1 1.00
                   0.8                   1

20 0
 s    5 1.00
          1712.8415853  -0.0054477995804909
          257.64812677  -0.040627174632423
          58.458245853   -0.18111962250584
          16.198367905   -0.46843975563173
          5.0052600809   -0.44616846289231
 s    1 1.00
         0.58731856571                   1
 s    1 1.00
         0.18764592253                   1
 p    3 1.00
          13.571470233  -0.058848116969522
          2.9257372874   -0.32024624762471
         0.79927750754   -0.75328226520436
 p    1 1.00
         0.21954348034                   1
 d    1 1.00
                     1                   1

21 0
 s    3 1.00
             13.010701   0.033485484812989
             1.9622572    0.23472187088125
            0.44453796    0.81377028525955
 s    1 1.00
            0.12194962                   1
 p    1 1.00
                   0.8                   1

22 0
 s    3 1.00
             13.010701   0.033485484812989
             1.9622572    0.23472187088125
            0.44453796    0.81377028525955
 s    1 1.00
            0.12194962                   1
 p    1 1.00
                   0.8                   1

23 0
 s    3 1.00
             13.010701   0.033485484812989
             1.9622572    0.23472187088125
            0.44453796    0.81377028525955
 s    1 1.00
            0.12194962                   1
 p    1 1.00
                   0.8                   1

24 0
 s    5 1.00
          1712.8415853  -0.0054477995804909
          257.64812677  -0.040627174632423
          58.458245853   -0.18111962250584
          16.198367905   -0.46843975563173
          5.0052600809   -0.44616846289231
 s    1 1.00
         0.58731856571                   1
 s    1 1.00
         0.18764592253                   1
 p    3 1.00
          13.571470233  -0.058848116969522
          2.9257372874   -0.32024624762471
         0.79927750754   -0.75328226520436
 p    1 1.00
         0.21954348034                   1
 d    1 1.00
                     1                   1

25 0
 s    3 1.00
             13.010701   0.033485484812989
             1.9622572    0.23472187088125
            0.44453796    0.81377028525955
 s    1 1.00
            0.12194962                   1
 p    1 1.00
                   0.8                   1

26 0
 s    3 1.00
             13.010701   0.033485484812989
             1.9622572    0.23472187088125
            0.44453796    0.81377028525955
 s    1 1.00
            0.12194962                   1
 p    1 1.00
                   0.8                   1

27 0
 s    3 1.00
             13.010701   0.033485484812989
             1.9622572    0.23472187088125
            0.44453796    0.81377028525955
 s    1 1.00
            0.12194962                   1
 p    1 1.00
                   0.8                   1

28 0
 s    5 1.00
          1712.8415853  -0.0054477995804909
          257.64812677  -0.040627174632423
          58.458245853   -0.18111962250584
          16.198367905   -0.46843975563173
          5.0052600809   -0.44616846289231
 s    1 1.00
         0.58731856571                   1
 s    1 1.00
         0.18764592253                   1
 p    3 1.00
          13.571470233  -0.058848116969522
          2.9257372874   -0.32024624762471
         0.79927750754   -0.75328226520436
 p    1 1.00
         0.21954348034                   1
 d    1 1.00
                     1                   1

29 0
 s    3 1.00
             13.010701   0.033485484812989
             1.9622572    0.23472187088125
            0.44453796    0.81377028525955
 s    1 1.00
            0.12194962                   1
 p    1 1.00
                   0.8                   1

30 0
 s    3 1.00
             13.010701   0.033485484812989
             1.9622572    0.23472187088125
            0.44453796    0.81377028525955
 s    1 1.00
            0.12194962                   1
 p    1 1.00
                   0.8                   1

31 0
 s    3 1.00
             13.010701   0.033485484812989
             1.9622572    0.23472187088125
            0.44453796    0.81377028525955
 s    1 1.00
            0.12194962                   1
 p    1 1.00
                   0.8                   1

32 0
 s    5 1.00
          1712.8415853  -0.0054477995804909
          257.64812677  -0.040627174632423
          58.458245853   -0.18111962250584
          16.198367905   -0.46843975563173
          5.0052600809   -0.44616846289231
 s    1 1.00
         0.58731856571                   1
 s    1 1.00
         0.18764592253                   1
 p    3 1.00
          13.571470233  -0.058848116969522
          2.9257372874   -0.32024624762471
         0.79927750754   -0.75328226520436
 p    1 1.00
         0.21954348034                   1
 d    1 1.00
                     1                   1

33 0
 s    3 1.00
             13.010701   0.033485484812989
             1.9622572    0.23472187088125
            0.44453796    0.81377028525955
 s    1 1.00
            0.12194962                   1
 p    1 1.00
                   0.8                   1

34 0
 s    3 1.00
             13.010701   0.033485484812989
             1.9622572    0.23472187088125
            0.44453796    0.81377028525955
 s    1 1.00
            0.12194962                   1
 p    1 1.00
                   0.8                   1

35 0
 s    3 1.00
             13.010701   0.033485484812989
             1.9622572    0.23472187088125
            0.44453796    0.81377028525955
 s    1 1.00
            0.12194962                   1
 p    1 1.00
                   0.8                   1

36 0
 s    5 1.00
          1712.8415853  -0.0054477995804909
          257.64812677  -0.040627174632423
          58.458245853   -0.18111962250584
          16.198367905   -0.46843975563173
          5.0052600809   -0.44616846289231
 s    1 1.00
         0.58731856571                   1
 s    1 1.00
         0.18764592253                   1
 p    3 1.00
          13.571470233  -0.058848116969522
          2.9257372874   -0.32024624762471
         0.79927750754   -0.75328226520436
 p    1 1.00
         0.21954348034                   1
 d    1 1.00
                     1                   1

37 0
 s    3 1.00
             13.010701   0.033485484812989
             1.9622572    0.23472187088125
            0.44453796    0.81377028525955
 s    1 1.00
            0.12194962                   1
 p    1 1.00
                   0.8                   1

38 0
 s    3 1.00
             13.010701   0.033485484812989
             1.9622572    0.23472187088125
            0.44453796    0.81377028525955
 s    1 1.00
            0.12194962                   1
 p    1 1.00
                   0.8                   1

39 0
 s    3 1.00
             13.010701   0.033485484812989
             1.9622572    0.23472187088125
            0.44453796    0.81377028525955
 s    1 1.00
            0.12194962                   1
 p    1 1.00
                   0.8                   1

40 0
 s    5 1.00
          1712.8415853  -0.0054477995804909
          257.64812677  -0.040627174632423
          58.458245853   -0.18111962250584
          16.198367905   -0.46843975563173
          5.0052600809   -0.44616846289231
 s    1 1.00
         0.58731856571                   1
 s    1 1.00
         0.18764592253                   1
 p    3 1.00
          13.571470233  -0.058848116969522
          2.9257372874   -0.32024624762471
         0.79927750754   -0.75328226520436
 p    1 1.00
         0.21954348034                   1
 d    1 1.00
                     1                   1

41 0
 s    3 1.00
             13.010701   0.033485484812989
             1.9622572    0.23472187088125
            0.44453796    0.81377028525955
 s    1 1.00
            0.12194962                   1
 p    1 1.00
                   0.8                   1

42 0
 s    3 1.00
             13.010701   0.033485484812989
             1.9622572    0.23472187088125
            0.44453796    0.81377028525955
 s    1 1.00
            0.12194962                   1
 p    1 1.00
                   0.8                   1

43 0
 s    3 1.00
             13.010701   0.033485484812989
             1.9622572    0.23472187088125
            0.44453796    0.81377028525955
 s    1 1.00
            0.12194962                   1
 p    1 1.00
                   0.8                   1

[5d]
[7f]
[9g]

[MO]
 Sym= A
 Ene=               0
 Spin= Alpha
 Occup=    1.00000
   1    -1.1478070074937e-05
   2    3.0389324192651e-05
   3    -0.00017016892566266
   4    0.00037656819454648
   5    0.00031096531005711
   6    0.00020645634627137
   7    -5.6589698565335e-05
   8    0.00025044214341272
   9    -0.0006719292623284
  10    0.00018521245938669
  11    -0.00081357433790024
  12    0.0010363140530001
  13    -0.00034669188856109
  14    0.0011712651329061
  15     -0.38111495349235
  16     -0.63589097971787
  17    -0.076297367493815
  18     -0.15878651290857
  19      0.51064036159141
  20     -0.08093404713388
  21     -0.13506999066232
  22    -0.016212295530898
  23    -0.033785433509368
  24      0.10857156262957
  25    0.00098656808838998
  26    0.00085758510233641
  27    0.00065802289417225
  28    -0.00054541767212989
  29    0.00032089706305222
  30    0.00080558194531633
  31    0.00093714399204844
  32    1.8523774242821e-06
  33    -4.2906445277813e-06
  34    3.0369025854423e-05
  35    -0.00012259118542478
  36    -0.00010590080118601
  37    3.7462506217652e-06
  38    3.8790732912958e-07
  39    1.3005895612426e-05
  40    -1.3523951412051e-05
  41    -1.5711947547034e-06
  42    -4.5244953883962e-05
  43    4.4174400252533e-05
  44    1.970680984058e-05
  45    0.00013484096447779
  46    0.00010778222116755
  47    0.00015392672485021
  48    1.2800368658732e-05
  49    4.1077543027094e-05
  50    -9.3028675587704e-05
  51    -0.00014536123578806
  52    -0.00011745316599866
  53    -6.735603189484e-05
  54    -1.6493897797645e-05
  55    5.700291706724e-05
  56    8.3691340684532e-06
  57    2.0017431869812e-06
  58    1.3057225444173e-05
  59    -5.0222634983333e-06
  60    4.1340001775205e-07
  61    1.2740058791623e-06
  62    1.304379671431e-06
  63    -1.4336288994133e-05
  64    -3.2443587930455e-05
  65    2.5539053582114e-06
  66    0.00048388211045997
  67    -0.0002365646503451
  68    0.00072563213772493
  69    0.00023915647781133
  70    -0.0001890598000341
  71    0.00041328010143697
  72    -0.00042581332165674
  73    -0.00069311575301322
  74    -9.3735496120059e-05
  75    -0.00017228740364833
  76    0.00055761061561699
  77    -3.0132208079408e-06
  78    -2.6318694174611e-05
  79    0.00048999275141914
  80    0.0013302594203079
  81     0.012700453971448
  82    -0.015739596134107
  83    -0.0015523365622248
  84    -0.0082335188142369
  85     0.011264565273604
  86    0.0025782129269401
  87     0.003260232047216
  88    -4.4014531833867e-05
  89     0.001022737863751
  90    -0.0021900988810818
  91    -0.007738698889514
  92    -0.0030961374358168
  93    0.00052681418584626
  94    -0.00087866714300547
  95    0.00024959658248399
  96     0.024483531288225
  97     0.011579650421443
  98    -0.00062614531516752
  99    7.8925021840693e-05
 100    -0.001529321538142
 101    -0.017444528872298
 102    -0.0095361221546652
 103    -5.4123061461875e-05
 104    0.0014269252604306
 105    0.00067334249699499
 106    4.855852166557e-06
 107    8.1846297180789e-05
 108    -0.00063854314508745
 109     0.019190094472456
 110    0.0069061225475826
 111    0.0069074290140753
 112    -0.012895257283703
 113    -0.0053328628783971
 114    -0.0055238434765849
 115    0.0022330699198696
 116    0.0029107005207855
 117    0.00073978368163471
 118    0.00033225933246486
 119    -0.0031170395282196
 120     0.011871363525287
 121    0.0066020082385474
 122    0.00018018475231256
 123    -0.0012658496330095
 124    -0.00043651413456705
 125     0.014650053836455
 126    0.0061607902763455
 127    -0.00076747675774916
 128    0.00047280902925715
 129    0.0010128273454778
 130    -0.025859322132288
 131    -0.012065247283549
 132    0.0014566597539383
 133    0.00098875961346249
 134    -0.00047088409466946
 135    -1.1209249735182e-06
 136    -1.2913354500427e-05
 137    0.00039524066210524
 138    -0.018058574535696
 139    -0.007227995512759
 140    -0.0055979490326656
 141     0.012083834096203
 142    0.0057447440954629
 143    0.0041424253167964
 144    0.0020645909900068
 145    0.0037927551474207
 146    0.00040799567369981
 147    0.00082807620359313
 148    -0.0018992460310814
 149    -0.0076887969537147
 150    -0.0030879799823646
 151    0.00095635549869624
 152    -0.00043173175909234
 153    2.4535813188587e-05
 154    -0.017424480759816
 155    -0.0094276498599049
 156    -0.00093254792249155
 157    0.00049582111321081
 158    0.0011481068954525
 159     0.024530170943563
 160     0.011607267921111
 161    -0.00086412011886244
 162    -0.00015314891894409
 163    -0.0014168340203567
 164    -5.7552078083654e-06
 165    4.7088468648064e-05
 166    -0.00064507239327675
 167    -0.00018932398422689
 168    -0.012996947981928
 169      0.01708532946759
 170    0.00030444264496725
 171    0.0080629281495199
 172    -0.012180329630421
 173      0.00157495829213
 174    0.0032356966932016
 175    0.0011193193354769
 176    0.00069019546501843
 177    -0.0029848967469611
 178    -0.025870675990638
 179     -0.01226722065228
 180    -0.0010574801920854
 181    -0.0011357585998657
 182    0.00097277292947061
 183     0.011199864455094
 184     0.004632543300495
 185    -8.581262405727e-05
 186    0.0012073150992825
 187    0.00022798323457894
 188     0.015341287911287
 189    0.0083720415389704
 190    0.0011301038149184
 191    -0.00082195632013523
 192    -0.00058925771207529
 193    -2.7167837221969e-05
 194    -6.8638549815547e-05
 195    8.6750879820285e-06
 196    -0.0014837127744857
 197    0.00027555350212183
 198    -0.0016590942746269
 199    0.00093151067485029
 200    -0.00016370089951231
 201    0.0008791742538707
 202    -0.0002302395181306
 203    -0.00036273811244678
 204    -5.5335283013924e-05
 205    -8.620475940257e-05
 206    0.00028353791859461
 207    -0.00041918795395378
 208    -0.00027891497784228
 209    0.00030779816080204
 210    0.00017737835462702
 211    3.2952906628308e-05
 212    -0.00044663613565554
 213    -0.00026234451801272
 214    -0.00011082962248656
 215    -0.00023267301875321
 216    0.00024453611106812
 217    0.00090660597100374
 218    0.00026264032199544
 219    -0.00019651342265377
 220    7.3761671746209e-05
 221    -0.00025068253477785
 222    -5.1947684199606e-05
 223    -0.000171232616294
 224    0.00044634614561661
 225    -3.0062052992085e-06
 226    -0.00015611482746287
 227    -0.00020105394819362
 228    -7.3942152385375e-05
 229    3.3076501518671e-05
 230    0.00019226492840807
 231    4.9231348347086e-06
 232    -2.0553754836614e-05
 233    1.0497989984522e-05
 234    1.496292287088e-05
 235    1.7930299614161e-06
 236    -0.0001298842219343
 237    -0.00065907540908806
 238    4.7166298916546e-05
 239    -3.1406184082009e-05
 240    -2.4035941427284e-05
 241    -4.3899822733003e-05
 242    -0.00031008216398987
 243    5.5953988389241e-06
 244    9.2794553152622e-06
 245    -4.2895430870063e-05
 246    7.0955499432277e-05
 247    0.00013399468872909
 248    -1.9663942995562e-06
 249    9.0665613316825e-06
 250    1.0017384333138e-05
 251    3.0982253312593e-05
 252    0.00012288866699903
 253    -0.00048900329563888
 254    2.1106487922603e-06
 255    0.00019473868508648
 256    1.0811980338088e-05
 257    -0.00017031643716887
 258    -0.00010187936897105
 259    -0.0001530278126629
 260    -1.7688547757991e-05
 261    -1.13776193608e-05
 262    -1.3426365895321e-05
 263    1.2259278061719e-05
 264    3.985624227137e-06
 265    -1.6607186104292e-05
 266    -9.9854783644163e-05
 267    9.7187380250559e-06
 268    -1.763961337729e-05
 269    -8.642219966332e-06
 270    0.00011917371244438
 271    0.00064099668114178
 272    -1.8354742825996e-05
 273    3.5517646826309e-05
 274    6.042120962837e-05
 275    1.0602306962995e-05
 276    0.00034705557268509
 277    2.0625469590608e-05
 278    2.2772637007018e-05
 279    1.7211511285278e-05
 280    3.3432762537105e-05
 281    0.00012849375838493
 282    -0.00048642153947803
 283    -0.00015947782806461
 284    2.280829168368e-05
 285    0.00010272407137824
 286    -1.0732178625265e-05
 287    5.1820727805518e-05
 288    -0.00023959350301848
 289    -2.0409317646882e-05
 290    -3.1493122766254e-06
 291    -1.7133933768536e-05
 292    -8.0550405464838e-06
 293    3.6279462210928e-06
 294    -1.8815314481334e-05
 295    -0.00010766305379486
 296    1.2364864372861e-05
 297    -1.3817819562606e-05
 298    -9.9555423947425e-06
 299    9.5661638965356e-06
 300    0.00039767079443453
 301    -1.1942029104765e-05
 302    -1.0283240510628e-05
 303    3.4276297126163e-05
 304    0.0001209229434377
 305    0.0006130149888086
 306    -3.2949233870654e-06
 307    4.6008953243103e-05
 308    5.1012388336095e-05
 309    -5.5789771009793e-05
 310    -0.00018328249154495
 311    0.00046872824722368
 312    7.0060788305191e-05
 313    -0.00010616702208744
 314    -0.00024461695312518
 315    1.2600387554374e-06
 316    0.00015840605495457
 317    0.00012455754076461
 318    -2.9673453508007e-06
 319    9.1666810177599e-08
 320    1.0372551894815e-05
 321    -2.4075412540051e-05
 322    1.7505553316564e-07
 323    6.8164382791863e-05
 324    0.0001743177459856
 325    -2.6324422001226e-06
 326    3.5180892329204e-06
 327    1.1530445735026e-05
 328    -4.3564408960121e-05
 329    -0.00042404247157124
 330    -3.0532535970993e-05
 331    -2.7334375818689e-05
 332    -3.757544844579e-05
 333    -0.00014429240691365
 334    -0.00063655777340163
 335    2.4163295561703e-05
 336    -3.7143385358875e-05
 337    -6.0969239466171e-06
 338    -2.569888910899e-06
 339    -4.2964169777804e-06
 340    -2.000608581193e-05
 341    -1.1843891328827e-05
 342    1.2885395266886e-06
 343    -2.4094542617038e-05
 344    4.1451559619604e-05
 345    -1.3595448028484e-05
 346    4.8973322377588e-05
 347    2.2561241797897e-06
 348    -3.2943562286898e-06
 349    1.6698672957555e-06
 350    -1.9166433611547e-06
 351    5.0906906949128e-06
 352    9.4329396120647e-06
 353    -1.2404593166219e-05
 354    -3.7180817256046e-07
 355    4.074560407338e-06
 356    -1.6011869022622e-06
 357    1.0513666810667e-05
 358    -1.6603673336725e-06
 359    -4.0047388753453e-06
 360    3.4239968601805e-07
 361    1.8300708179874e-07
 362    -1.5761359549356e-05
 363    6.5451225071666e-05
 364    5.3473943930644e-06
 365    -4.8021131021936e-06
 366    1.602344191088e-07
 Sym= A
 Ene=               1
 Spin= Alpha
 Occup=    1.00000
   1    1.6760455673817e-05
   2    -4.2576046941364e-05
   3    0.00025561473731885
   4    -0.0016121503150406
   5    0.0018268422787584
   6    0.00059529903311446
   7    0.0029687047987635
   8    -0.0034900321199109
   9    -0.0019567463796561
  10    -0.0098048878533543
  11     0.011507493535706
  12    0.0064599933299957
  13      0.03413831222863
  14    -0.039377683892567
  15      0.63867554125421
  16     -0.37699308166831
  17      0.18767332273605
  18      0.47651927892628
  19      0.18365134765903
  20      0.12715335560872
  21    -0.074474027844383
  22     0.037278119845312
  23     0.095106116174435
  24     0.036498903254672
  25    -0.00075756420837887
  26    0.0019912131740404
  27    -0.0031668441143508
  28    -0.0013573177604369
  29    0.00095940218458187
  30    0.0015690807003234
  31    -0.0011102858106305
  32    1.984857289844e-06
  33    -4.3683623864348e-06
  34    3.3490568889635e-05
  35    0.00056660889634582
  36    -0.0014976124283394
  37    0.00038511699041004
  38     0.001891440951853
  39    -0.002235634029093
  40    -0.0012767125237017
  41    -0.0063229959214865
  42    0.0074564353087392
  43    0.0027526393334923
  44     0.016261244712647
  45     -0.01832918997532
  46    -0.00019363358875961
  47    0.00010119163215323
  48    -7.5726829746335e-05
  49    -0.00021767303105287
  50    -0.00011871642677133
  51    0.0049100494992733
  52    -0.0033357370224004
  53    0.0014473200977401
  54    0.0035747346931803
  55     0.001416904539996
  56    -0.00030108650845103
  57    0.00078744824196494
  58    -0.001309288322446
  59    -0.00058062909870855
  60    0.00037232670462877
  61    0.00062848023962754
  62    -0.00043558284583926
  63    -8.4509996050189e-05
  64    -0.00023159100086845
  65    6.3355641596874e-05
  66     0.014101801046605
  67     0.070185874732969
  68     -0.08280486821258
  69     0.014714200944774
  70      0.07401826134111
  71    -0.086972624475342
  72    -0.0043453496166043
  73    0.0025861560725408
  74    -0.0012757065450848
  75    -0.0032335970908571
  76    -0.0012574075100771
  77    -0.00052776458463556
  78    -0.00058686707934402
  79    -0.0060742040956418
  80    0.00021896097588236
  81    -0.0019742784483384
  82    -0.0023027012590616
  83    0.0012682010339049
  84    -0.0044273826789628
  85    0.0073382627095469
  86    0.00074155479775857
  87    0.00018617334129436
  88    0.00015166154676146
  89    0.00012644000777933
  90    0.00024162006867719
  91    -0.0019316851276667
  92    -0.0028186995140312
  93    0.00017767070976672
  94    0.00043021604382964
  95    -0.00057652318761524
  96    0.00051626458835959
  97    -0.0015664323275511
  98    -3.210093294443e-05
  99    0.00024922961055681
 100    0.00048796608257101
 101    0.0027522322282669
 102    0.0082590573049098
 103    -0.00032273853230023
 104    -0.00089891988157429
 105    -0.00011996418927257
 106       -0.004192711483
 107    -0.0062814518313048
 108    -0.035778382419693
 109    0.0060789076877814
 110    -0.017909149717598
 111    0.00062248205650127
 112    -0.0022042112755599
 113     0.022292257522753
 114    -0.0082827796162451
 115    -0.0032225691062832
 116    0.0010969411510498
 117    -0.00092138736486032
 118    -0.0015104961309107
 119    -0.0014988864525236
 120     0.020340830612986
 121     0.020334797218549
 122    0.0011594024701015
 123    -0.0011479190972465
 124    0.0014696561747569
 125    -0.013231486572426
 126    -0.0069743972582262
 127    -0.00036827694926778
 128    -0.00027081404947158
 129    -0.0010527334064206
 130    -4.9072151339637e-05
 131    -0.0014425636241729
 132    -5.7845773715404e-05
 133    0.00055467107657644
 134    3.371184649288e-05
 135    0.0043268724750384
 136    0.0069382524909203
 137     0.034236373406342
 138    -0.0073441171072715
 139    0.0049907976237199
 140     0.017932508219337
 141     0.004396361169029
 142    -0.00023551225662372
 143    -0.025701512522305
 144    -0.0028037929714491
 145    0.0014995548144067
 146    -0.0010187263022719
 147    -0.0023439240554123
 148    -0.00086101430685831
 149     0.016042231826058
 150     0.007682131132725
 151    8.971049528655e-05
 152    0.0013598524563694
 153    0.00013153506436156
 154    -0.016542726651912
 155    -0.015665516117986
 156    -0.0012274003616001
 157    -0.0010891146354329
 158    0.00073057750443833
 159    -0.0052351429909099
 160    -0.0021400452212203
 161    0.00051101111106815
 162    -0.00030774897793977
 163    -0.00026425403155618
 164    0.00033965162185278
 165    0.00083814612339748
 166    0.00064963992939219
 167    -0.0012596831584907
 168    0.00058944065825536
 169    -0.00091652228221171
 170    0.0032201039704817
 171    -0.0059081083587779
 172    0.0051650849337417
 173    0.0004983911445906
 174    -0.00015590827006834
 175    0.00011785156470197
 176    -1.662494457554e-05
 177    0.00066616583404993
 178    -0.00018802374949393
 179    0.00031899210396622
 180    -0.00016731338358358
 181    4.2147667051907e-05
 182    0.00029310325035873
 183    0.0012271905970224
 184    -0.0017629992753477
 185    -3.0956295697977e-05
 186    0.0004344640519989
 187    -0.00035549083583972
 188    -0.00069897199258638
 189    0.0034728474090768
 190    0.00045563903699334
 191    -0.0002386384060724
 192    -0.00013592452443934
 193    -1.6184231747712e-05
 194    -0.00013410302611218
 195    0.00022502920290056
 196    0.0026288974641729
 197     0.014023542407413
 198    -0.016466517531435
 199    -0.0023329852082672
 200    -0.011046434807727
 201     0.013605410690797
 202    -0.003507544061532
 203    0.0025503350256759
 204    -0.000490419153321
 205    -0.0020316664977458
 206    -0.0010209918636559
 207      -0.0256910540947
 208    -0.012959467019396
 209    0.0010907895959734
 210    2.4990492923211e-05
 211    -0.0016725117696772
 212     0.010198267323807
 213    0.0053186344160599
 214    0.00050104467646118
 215    0.00029686102338578
 216    0.0010127530129647
 217     0.015595661768388
 218     0.008001616552241
 219    -0.0014687466086752
 220    0.00020977632507869
 221    -2.9762718060073e-05
 222    0.00042020931056883
 223    0.00046386418072052
 224    0.0048141275136065
 225    -0.00095774798696562
 226    0.0015820397528837
 227    -0.0009110290150346
 228     0.001434724849082
 229    -0.0044749524842497
 230    0.0023671786467207
 231    -0.00012744035669226
 232    -0.00018167319844884
 233    9.4272287249425e-05
 234    -0.00018661095010491
 235    0.00014578455858821
 236     0.000376223377382
 237    -0.0063211241192779
 238    -0.00045461282599957
 239    -0.00026341653894933
 240    -0.00013347702777264
 241    -0.0010597962968166
 242    0.00069069404252711
 243    0.00015312062439148
 244    -5.166415041816e-05
 245    3.280243363282e-05
 246    -0.0003722433115597
 247    0.0014174874516301
 248    6.1063627214063e-05
 249    6.6178305658393e-05
 250    -1.0312473362932e-05
 251    0.0033322605371279
 252    0.0062248450136503
 253     0.020733873486181
 254    -0.0035348101414317
 255    0.00025876026283211
 256    0.0079547151345707
 257    0.0042094107565214
 258    0.0050027750163029
 259    -0.0072894913030122
 260    -0.00064262891931616
 261    0.00028879547595328
 262    -0.00034776471660585
 263    2.126902716255e-06
 264    -0.00024378575267455
 265    -0.0066859407615173
 266    -0.0027630541570278
 267    0.00028669112742443
 268    0.00011270671594193
 269    0.0002223084346561
 270    0.0040881955151924
 271    -0.0087439489262446
 272    -0.00031599047733792
 273    -6.6189538243565e-05
 274    0.00089629265804236
 275    0.00024946561152434
 276    0.00048123104896766
 277    0.00029190961042427
 278    -7.1521036378758e-05
 279    -0.0004648409477803
 280    -0.00026473413114683
 281    -0.00085963436498875
 282    0.00065497348946876
 283    -0.0005411859060273
 284    0.00038285590425978
 285    -0.0011989654485642
 286    0.0019729533320264
 287    -0.0030163877559991
 288    0.0018183730769047
 289    0.00012959334540151
 290    6.8150012619528e-05
 291    0.0001793423932996
 292    3.8052998526117e-05
 293    -0.00016611915427902
 294    0.0010056964660744
 295    0.0022650992233378
 296    -8.4928812877964e-05
 297    5.7258818510908e-05
 298    -0.00013005150318318
 299    -0.00098026937670614
 300    -0.00093425903521101
 301    4.0525805974056e-05
 302    1.1324205700536e-05
 303    1.7591548266728e-05
 304    -0.00076416583000854
 305    -0.0030209887497345
 306    0.00035170681277884
 307     2.95707449911e-05
 308    -1.746341212401e-05
 309    -0.0033238837158999
 310    -0.0064911061495841
 311    -0.018933715258166
 312    0.0028455140974886
 313    -0.0076761236009479
 314    0.0021804148547002
 315    -0.0020714910649393
 316    0.0044526751637785
 317     -0.00837002012308
 318    -0.00033623092340665
 319    0.00017881257970843
 320    6.4563493496101e-05
 321    -0.00067594090243363
 322    -0.00036978517603506
 323    0.0074630151167343
 324    0.0039905368046048
 325    -6.2277536270857e-05
 326    -0.00036802946240689
 327    -6.4234499692565e-05
 328    -0.0018583099479623
 329    -0.00047006750505288
 330    -0.00038758386043373
 331    0.00022490050430137
 332    -0.00018189683553028
 333    -0.0039524028683055
 334    0.0054671112872122
 335    0.00032639879258101
 336    -0.00043976944794825
 337    0.00022628975531907
 338    1.7721025480397e-05
 339    6.6933975227505e-05
 340    1.4083661710342e-05
 341    -4.4476166865864e-05
 342    -0.00010777426211211
 343    0.00019273761431318
 344    -0.00016399211991024
 345    0.0002002269516997
 346    0.00033992818511732
 347    3.0463697441452e-05
 348    -5.5619053040578e-08
 349    1.1165933972067e-05
 350    4.0243190226214e-05
 351    1.7347426473856e-05
 352    -4.6513006984675e-05
 353    -0.00059071885736812
 354    -7.9244948696252e-06
 355    5.1270244879987e-05
 356    2.2250311161868e-05
 357    2.2138579027891e-06
 358    0.00089617069086774
 359    4.4805905917182e-05
 360    -0.00011140581731992
 361    -4.7069276495079e-05
 362    -4.2838349940704e-05
 363    -0.00073234241699788
 364    -4.2137040253749e-05
 365    5.3260271353674e-05
 366    2.6716864405865e-05
 Sym= A
 Ene=               2
 Spin= Alpha
 Occup=    1.00000
   1    1.5764949715336e-05
   2    -3.8323685246524e-05
   3    0.00024754787334459
   4    -0.0013923148216291
   5    0.00093814255277714
   6    -0.0041087105289815
   7    -0.0012617397488226
   8    -0.001748447121281
   9     0.013558858841528
  10    0.0041527803802833
  11    0.0057637246264948
  12    -0.046628256444368
  13    -0.014034016119124
  14    -0.019779690662097
  15      0.32343567267993
  16      0.27095920957297
  17      0.38554078787485
  18     -0.55016948539098
  19      0.46551933186018
  20      0.06467156567497
  21     0.054391909056086
  22      0.07637068989711
  23      -0.1094783915016
  24     0.092433710818058
  25    -0.00059332283313335
  26    0.00045842190808185
  27    -0.0017575252521815
  28     0.002704721936296
  29    -0.00081719549597175
  30    0.00052905201342722
  31    0.0030192650888514
  32    2.7767290972833e-06
  33    -7.2824126664245e-06
  34    4.2039943083525e-05
  35    0.00054849958713619
  36    -0.0011781351087631
  37    -0.0026101491431245
  38    -0.00081754540530536
  39    -0.001126725505346
  40     0.008719976428596
  41    0.0027192994320676
  42    0.0037576295946132
  43    -0.022054138801588
  44    -0.0063631393041515
  45    -0.0092474143862756
  46    -0.00014494191060609
  47    -7.0770276233867e-05
  48    -0.000104456915174
  49    0.00022372429379842
  50    -0.00016879189357271
  51    0.0023345897270003
  52    0.0017793359302918
  53    0.0031836717956096
  54    -0.0043888042871899
  55    0.0037959832613942
  56    -0.0002679712567634
  57    0.0001631812166794
  58    -0.00071067021599583
  59      0.00109459039581
  60    -0.00030833909194058
  61    0.00023340338025986
  62    0.0012424881090195
  63    -4.8430657324276e-05
  64    -0.00015461950553273
  65    0.00017915898134248
  66    -0.096771471502445
  67    -0.030442537275134
  68    -0.041862360536589
  69     -0.10185491285812
  70    -0.031968045359914
  71    -0.043900021325006
  72    -0.0021886298179117
  73    -0.0018259754135114
  74    -0.0026325808287096
  75    0.0037442007384699
  76    -0.0031718229954791
  77    0.0042724527136437
  78    0.0068485013586754
  79       0.0338071087242
  80    0.0027671745950368
  81     0.015187732302817
  82     0.012354721643405
  83    -0.010807776022675
  84    -0.017005398711956
  85    -0.016525313584505
  86    -0.00093146764850871
  87    -0.0015458338268814
  88    -0.0013420870581364
  89     0.003084714228151
  90    -0.0017267086507326
  91      0.01589460215437
  92    0.0074382676858652
  93    -0.0011012209078414
  94    0.00019755728707482
  95    0.00067149562814624
  96    -0.005204635187477
  97    -0.0023892396371425
  98    0.00022236962978433
  99    -0.00055916858726945
 100    -1.760314290901e-05
 101    -0.016333626184581
 102    -0.014617014178765
 103    0.0010896355212344
 104    0.0011846581272884
 105    -0.00054330886736792
 106    -0.00051478603200077
 107    -0.00043023668234924
 108    -0.0065995396792494
 109    -0.00035235367673205
 110    -0.0030608268231323
 111    -0.0010266408056624
 112    0.0073634481289247
 113    0.0034867466763614
 114    0.00092045338739547
 115    -0.00028350825635823
 116    0.00018662161797149
 117    -5.8005395513949e-05
 118    -0.00035956222081745
 119    0.00038322994265286
 120    0.0031393291320571
 121    0.0069707583315354
 122    0.00025969768759121
 123    -0.0007065848164218
 124    0.00022772340698591
 125    -0.0017032732594339
 126    -0.0034288561030868
 127    -0.00052735311294076
 128    -0.00010747286643651
 129    -0.00028624513643034
 130    0.00032327408592904
 131    0.00085488429230175
 132    1.1386065874851e-05
 133    0.0002978265498573
 134    0.00017857739248415
 135    0.00033936539331197
 136    0.00079037899097083
 137    0.00082522625401146
 138    -0.00085876229405033
 139    -0.00040245987115747
 140    0.0010748867492556
 141    0.0084108716474814
 142    0.0019530504853047
 143    -0.0010796262618636
 144    -2.9366609444082e-06
 145    0.00073180721709892
 146    6.6767367774064e-05
 147    -0.00056492654061238
 148    0.00016883221576416
 149    0.0013547177035459
 150    -0.0010743081676764
 151    -0.00060324791459715
 152    -9.661633031411e-05
 153    -0.00012738853574324
 154    -0.00067430460869038
 155    0.0051052166154437
 156    0.00042778943148356
 157    -8.5507100337458e-05
 158    -0.00051772060130389
 159    -0.00051706737083362
 160    -0.0018716628567889
 161    0.00011010212748456
 162    0.00021177734702026
 163    0.00041552816349591
 164    -0.0041961323619686
 165    -0.006459807242611
 166     -0.03491986178712
 167     0.017194819610549
 168    -0.0070741951884457
 169    -0.0055398143248899
 170    -0.024456038004306
 171    0.00062278846766826
 172    0.0050726398916625
 173    -0.0014918559276737
 174    -0.0013939769292568
 175    -0.0017938336269252
 176    0.0022131989205532
 177    -0.0021762075447129
 178     0.002720011507098
 179    0.00045761563300651
 180    -0.00041187880997139
 181    0.00037211829850611
 182    0.00018822110176242
 183    -0.014739973559972
 184    -0.0074632746326422
 185    -0.00024792050610626
 186    -0.00033983083816223
 187    -0.001187555890465
 188     0.018474865853068
 189     0.018274328844787
 190    0.0015430596363048
 191    -0.00049090474858887
 192    0.0012475814908677
 193    1.3102669590989e-05
 194    -3.171001116244e-05
 195    4.119991948994e-05
 196    -0.019193108000621
 197    -0.0058213724638718
 198    -0.0082883504424289
 199     0.015450412555782
 200    0.0050474265656848
 201    0.0070152395068208
 202    -0.0011512512169346
 203    -0.0010324650114174
 204    -0.0022386259816462
 205     0.002782339275803
 206    -0.0029985717199174
 207    0.0031228892017842
 208    0.0018344406515094
 209    0.00064002199784887
 210    0.00012936633726291
 211    0.00066779758339209
 212    -0.023653030489831
 213    -0.011851409315177
 214    -0.00045230697161699
 215    -0.0017610664981677
 216    -0.00038778155759271
 217     0.020794172543942
 218     0.010789002824685
 219    -0.00094209133364961
 220     0.001379657657643
 221    -0.00063228477338501
 222    -0.0033059089888918
 223    -0.0063384072825815
 224    -0.019777525014532
 225    0.0082133042142944
 226    -0.0022492973094157
 227    -0.00074853712988773
 228    -0.0081703892149629
 229    -0.0011638543476916
 230    -0.0047107991278751
 231    -6.0769502258981e-05
 232    -0.000399663918564
 233    9.9915189316228e-05
 234    0.00060801665691071
 235    -0.00039422453508826
 236    -0.0041105229399001
 237    0.0067610568194728
 238    0.00070024202247766
 239    -0.00023334378640979
 240    2.5478560508414e-05
 241    -0.0012161468517619
 242    -7.7695855712105e-05
 243    -0.00042815129879769
 244    0.00028166147018766
 245    -4.5886209620162e-05
 246    0.0072323747003679
 247    0.0036547557290685
 248    0.00023480230947695
 249    0.00010050893287978
 250    -0.00031260292376433
 251    0.00040630104229275
 252    0.00037434976688063
 253      0.00498687177614
 254    -0.0016883036657913
 255    2.3809485852052e-05
 256    0.00064183544923437
 257    0.0045771013693266
 258    -0.00025321896365714
 259    -0.00054935920190581
 260    9.2123277334009e-06
 261    0.00015262089833711
 262    8.1403686302974e-05
 263    -7.888562071073e-05
 264    -0.00021743079017354
 265    -0.00035498774477518
 266    0.0017290136630905
 267    -6.3441387001581e-05
 268    5.4939147410171e-05
 269    -6.3690435636107e-05
 270    5.967645683626e-05
 271    -0.0048628000972063
 272    -6.5294010027588e-05
 273    -0.00034441425876601
 274    0.00032430332760329
 275    -0.00095204369160171
 276    -0.0010627987625817
 277    5.2509835307377e-05
 278    -5.2344468276309e-05
 279    -4.8243668303576e-05
 280    0.0033429518266518
 281    0.0062001570444123
 282     0.021063249724868
 283    0.0028850310098913
 284    0.0070029961927413
 285    0.0043981070277622
 286    -0.0071230415681835
 287    -0.007149492890444
 288    -0.00080246857703325
 289    -0.00033935761911818
 290    -2.7517851863426e-05
 291    -0.00053201793421461
 292    0.00031842076738174
 293    -0.00042838731700821
 294    -0.0067151792287763
 295    -0.0025759586192061
 296    2.8357292916474e-05
 297    -0.00010224341534645
 298    0.00034298223521991
 299    0.00022629311003969
 300    0.0004952919478334
 301    -0.00011204075298185
 302    -0.00050029748309235
 303    -0.00022906896927005
 304    0.0040339678365517
 305    -0.0092284726052645
 306    0.00048127500559722
 307    0.00069594841939244
 308    0.00048502709595753
 309    -0.00028609166915015
 310    -0.00082967341471687
 311    0.00036906590957108
 312    -0.0014644207098386
 313    -0.0011423569376811
 314    -9.5017810248802e-05
 315    0.0049812626957644
 316    0.0010849579663446
 317    -0.00067451376424827
 318    -0.00014606500453434
 319    -0.00028204272939254
 320    3.5079377968061e-05
 321    -9.9843878552601e-05
 322    5.0320541985119e-05
 323    0.00094896591741084
 324    0.0017439474988559
 325    -7.5792731643769e-05
 326    -9.9171217331563e-05
 327    1.7717961498944e-05
 328    -0.0012097499848975
 329     0.001153489150542
 330    2.9238010545822e-05
 331    -0.00011793673479134
 332    9.6349915957517e-05
 333    -0.00019155056621916
 334    -0.0048674009921205
 335    0.00020894188169374
 336    0.00024179375634839
 337    -0.0003248542625323
 338    1.9238060413044e-05
 339    6.2146117444709e-05
 340    7.9163445147082e-05
 341    0.0001842102466864
 342    9.956282406887e-05
 343    0.00011814980236671
 344    -3.0782421586244e-05
 345    0.00028458572990923
 346    0.00028836266211794
 347    3.3645563378083e-05
 348    2.9947387281951e-05
 349     6.52304563348e-06
 350    -2.678864501076e-05
 351    2.0523373691804e-05
 352    -6.5765141538672e-06
 353    0.00076746978935475
 354    7.8116476446685e-05
 355    -6.1881394999782e-05
 356    -6.3806986882095e-05
 357    -3.3566186860413e-05
 358    -0.00033185606836713
 359    -2.0904638627863e-05
 360    -4.1416572597765e-06
 361    2.0818757951111e-05
 362    -4.7337582890757e-05
 363    -0.00093400579464279
 364    -5.0622452496828e-05
 365    6.917024497542e-05
 366    4.2601118214257e-05
 Sym= A
 Ene=               3
 Spin= Alpha
 Occup=    1.00000
   1    4.1109470883802e-06
   2    -1.1345078700173e-05
   3    5.8549744505264e-05
   4    -0.0001495047924761
   5    -0.00011708605228647
   6    -5.924164663232e-05
   7    -7.1179408708738e-05
   8    4.7462958556565e-05
   9    0.00018648323019374
  10    0.00022564261983226
  11    -0.00015348808266452
  12    6.2630643854805e-05
  13    -6.0336477720375e-05
  14    0.00016420753065967
  15      0.43040372277775
  16     -0.27993751176301
  17     -0.54293249770578
  18     -0.48448003815768
  19     -0.25914997874168
  20     0.053478729239637
  21    -0.034737681601442
  22    -0.067522882182798
  23    -0.060432131942498
  24     -0.03221069280756
  25    0.00028491820631554
  26    -0.00023793246129646
  27    -9.2605660735452e-05
  28    0.00016036860610004
  29    -3.6751115024379e-05
  30    0.00029808407332606
  31    -0.00016694673885011
  32    -9.4113419333296e-08
  33    4.3404312519976e-07
  34    -3.6696494251459e-07
  35    -1.7190126568373e-05
  36    8.400086094097e-05
  37    3.6309482228919e-06
  38    5.8559476850586e-07
  39    -1.811568209704e-06
  40    -1.2026629696576e-05
  41    -2.8259924305507e-06
  42    5.7659868207834e-06
  43    4.3743274684481e-05
  44    3.2119272592546e-05
  45    -3.6900011469415e-05
  46    1.0818728554712e-05
  47    1.2398406416941e-05
  48    -3.7125832735215e-05
  49    -0.00010641958395017
  50    -2.8955144219013e-05
  51    0.0003726470397327
  52    -0.00026883088481685
  53    -0.00042954978224956
  54    -0.0003351568721524
  55    -0.00021471827887854
  56    9.1244543115347e-06
  57    -7.1853486164785e-06
  58    -1.8539334869723e-06
  59    6.6400505636597e-06
  60    4.9238008903909e-07
  61    7.474615652318e-06
  62    -4.6925991596123e-06
  63    -3.3449660525811e-05
  64    -7.7569513623961e-05
  65    -9.0586286261371e-05
  66    0.00046519876552545
  67    0.00074304253939428
  68    -0.00026693671532668
  69    -7.4233716298424e-08
  70    -1.4754969429635e-05
  71    6.4510078005341e-05
  72    -0.00068506060427034
  73    0.00044352299034326
  74    0.00086901394900817
  75    0.00075552700380543
  76    0.00040486011663073
  77     0.032676519568957
  78     0.088189385673339
  79     0.064535286950269
  80      0.11845022078026
  81     0.048100707266805
  82     0.040108277976797
  83    -0.056885324312076
  84    -0.026766372754997
  85    -0.019935439489005
  86     0.001756899419548
  87    -0.0025263156651334
  88    -0.00033644748872841
  89    -0.0031038346998033
  90    -0.0028056358229849
  91    -0.012996484586489
  92    -0.011422192470061
  93    -0.0051468350658095
  94    -0.0032451740189202
  95    -0.0031620922647587
  96    -0.013024478078133
  97    -0.013191851522562
  98    -0.0058024464378023
  99    -0.0024214160481351
 100    -0.00073324932941307
 101    -0.0081953319650218
 102    -0.013497585359656
 103    -0.006764857472044
 104    -0.0019124196251993
 105    -0.0017768292458004
 106    -0.032441918713436
 107    -0.087449387006935
 108    -0.064334705605309
 109    -0.0021836182310867
 110    -0.083682020582024
 111      0.10455272928828
 112    -0.0017966260583446
 113     0.043849206982771
 114    -0.049786990970843
 115    0.0022632405869721
 116    -0.00011007496013925
 117    -0.0044019540659648
 118    -0.0012542856624038
 119    0.00061762852235855
 120     0.006771980238386
 121     0.013995324641006
 122    0.00043128839288082
 123     0.004131361251893
 124    -0.0063717295444135
 125     0.013543814008726
 126     0.011654440371307
 127    0.00019836141605549
 128    0.0051992139993324
 129    -0.0040388346457117
 130     0.013429206379781
 131     0.012180906895673
 132    -0.00084193415055212
 133    0.0033050021897093
 134    -0.0051814182545019
 135    -0.032658089057743
 136      -0.0881336707145
 137    -0.064573634064983
 138     0.007417328375946
 139     0.080965849451716
 140     -0.10639986131405
 141    -0.0063067044207398
 142    -0.038278519424013
 143     0.053260817167554
 144    0.0020590955886938
 145    9.8697028284312e-05
 146    -0.0045372068235619
 147    -0.0014025042730263
 148    0.00050036556560423
 149     0.012922675381588
 150     0.011338886897723
 151    -0.00070556586498207
 152    -0.0027615366645048
 153    0.0062424497781403
 154     0.008441655687442
 155     0.013631043160355
 156    0.00012227648027784
 157    -0.0049352851383431
 158     0.005276283046223
 159     0.012857909742369
 160     0.013240679693145
 161    -0.00096419830049133
 162    -0.0045263673078226
 163    0.0043307782494761
 164     0.032495330596299
 165     0.087604207776957
 166     0.064391985973608
 167     -0.12049367611045
 168    -0.042414653152176
 169    -0.040205307019523
 170     0.061156658603377
 171     0.017608892165606
 172     0.018832172265889
 173    0.0016900725123308
 174    -0.0025552790820516
 175    -0.00046239657644443
 176    -0.0028474615410688
 177    -0.0029926890031817
 178    -0.012959508321266
 179    -0.012350565197939
 180    0.0053365766111179
 181    0.0016189087906272
 182    0.0028771755876523
 183    -0.013476033446034
 184    -0.011602657731383
 185    0.0065247464085305
 186    0.0013504125287862
 187    0.00066976334491208
 188    -0.0075046906083343
 189    -0.013531990016848
 190    0.0062512232755151
 191     0.002941490589219
 192    0.0026775684240999
 193    -4.7527456543304e-06
 194    -2.4890780141972e-05
 195    4.8823977295897e-06
 196    -0.00024221505211926
 197    -0.0002111970988641
 198    0.00019967471763003
 199    0.0011345243848592
 200    0.0014201345096444
 201    -0.00090606113523961
 202    -0.00061161473898253
 203    0.0003983533918482
 204    0.00077006117268702
 205    0.0006725295598164
 206    0.00036548438707052
 207    -0.0015636508342762
 208    -0.00067772982697943
 209    0.00058758506984225
 210    -0.00087705685355277
 211    -6.579822944803e-05
 212    0.0014169054266297
 213    0.00066914378114755
 214    -0.00077062993044007
 215    0.00059892909746842
 216    8.532861379104e-05
 217    0.00016070762477421
 218    0.00011900899692095
 219    0.00044109848206663
 220    0.00055175355509058
 221    -0.00020472033193425
 222    7.0264166835627e-05
 223    -0.00028035708283794
 224     0.001424191135837
 225    0.00037082540289974
 226    0.00053766324415295
 227    0.00040372477562842
 228    0.00097901908766928
 229    -0.0010943386803176
 230    -0.00084578073368005
 231    -4.4526934378249e-06
 232    4.4020114164211e-05
 233    -1.3730822760688e-05
 234    -6.2709866227559e-05
 235    1.9214455659915e-05
 236    1.3747766864417e-05
 237    -0.00026055702298766
 238    5.3681233045877e-05
 239    -1.1781830380254e-05
 240    6.4861260303196e-05
 241    4.1288090170454e-05
 242    -4.6365996074576e-05
 243    -0.00012991946278073
 244    7.1192335553818e-05
 245    4.1440716189777e-05
 246    0.00010562400101097
 247    0.00026254904273907
 248    1.4740678862777e-05
 249    -6.0338801338857e-06
 250    -9.2196878699209e-05
 251    -6.6816769128497e-05
 252     0.000218818925874
 253    -0.00095571755185294
 254    0.00023574729132267
 255    -0.00069597483999204
 256    0.00026648117716319
 257    -0.00055867230932952
 258    0.00089625035885148
 259    0.0010410199816874
 260    5.4050130753843e-05
 261    -8.280072945695e-06
 262    3.4135313530293e-05
 263    -8.0753861906016e-06
 264    2.1161909918608e-05
 265    -0.00011793264496544
 266    -0.00017936480610979
 267    4.8593900106645e-05
 268    6.8939234979323e-05
 269    2.6823424369059e-05
 270    -8.6958449025128e-05
 271    -0.00026983276672444
 272    -3.1048042776587e-05
 273    -8.1098840771201e-05
 274    0.00011476451648088
 275    -3.4977008187874e-05
 276    3.3487393806344e-05
 277    4.0161038247878e-05
 278    -4.4380900959982e-05
 279    -0.00012728789982842
 280    6.7848868146609e-05
 281    -0.0002238598510145
 282    0.0010118287684923
 283    -0.00075538891387915
 284    0.00014446556804285
 285    1.5365794938005e-05
 286    0.00040730209543884
 287    -0.0010865854111451
 288    -0.00095967203768012
 289    -4.3239368657788e-05
 290    -3.5394766367078e-06
 291    -4.5842878027479e-05
 292    1.3506296433563e-05
 293    -2.7133511754622e-05
 294    0.00011709366906505
 295    0.00017810673050785
 296    4.1780239214068e-05
 297    2.0810739021973e-05
 298    -7.6125957277531e-05
 299    3.7688943182467e-05
 300    -6.2805842108018e-05
 301    1.285041636425e-05
 302    0.00010418931674072
 303    9.8269643835392e-05
 304    6.9245870530179e-05
 305    0.00022443429141271
 306    -0.00010978753222219
 307    -6.778571636358e-05
 308    -2.8300052329358e-05
 309    -8.6286447712473e-05
 310    0.00025206725592116
 311    -0.0014705075596056
 312    0.00021915842078415
 313    6.9853144535064e-05
 314    -0.00076925946414515
 315    -0.00077037232703191
 316    0.0014454637790619
 317    0.00076023931297297
 318    -2.5211925904041e-05
 319    7.109306647523e-06
 320    5.4839075496439e-06
 321    -8.0284772548147e-05
 322    -2.2935875856235e-05
 323    -9.9484125060992e-05
 324    -0.00030963995489592
 325    9.3480886025921e-06
 326    6.8107039936201e-05
 327    7.0021252277772e-05
 328    -4.8698880766499e-05
 329    -1.1685856185613e-05
 330    8.1516901559884e-05
 331    -0.00013437637323023
 332    -3.3713309432355e-06
 333    4.1500124631414e-07
 334    0.00022489589279424
 335    -3.9031416937703e-05
 336    -4.8635979885001e-05
 337    -5.3358473281853e-05
 338    -2.6121659734228e-06
 339    -9.3569511617485e-06
 340    4.3161486618491e-06
 341    -3.336840230486e-06
 342    -1.5089770564819e-05
 343    1.2848370293818e-06
 344    2.3404285236458e-05
 345    3.1732824554776e-05
 346    -2.2197269925577e-05
 347    2.6002426187999e-06
 348    -1.5495821873632e-06
 349    -3.7101340251282e-06
 350    -3.4457009115548e-06
 351    -1.4657087186765e-06
 352    -2.3873125730241e-05
 353    3.2156177883973e-05
 354    -8.709191723867e-06
 355    1.3533272638643e-06
 356    -9.9764416752187e-07
 357    2.9122532541948e-05
 358    -4.9402833759675e-05
 359    2.6011130080842e-06
 360    -7.166823253552e-06
 361    4.4672227737437e-06
 362    -4.5360948175523e-06
 363    3.1205618524919e-06
 364    4.0294334920811e-06
 365    4.5119370023936e-06
 366    -9.9639125039826e-07
 Sym= A
 Ene=               4
 Spin= Alpha
 Occup=    1.00000
   1    -7.5392298201178e-07
   2    0.00061137777101784
   3    0.0033428350847712
   4    -0.010335084933015
   5    0.0036622050709633
   6    -0.0022120301700908
   7    0.0034935104272256
   8    0.0026091686657168
   9    0.0058316151565578
  10    -0.0092183207061288
  11    -0.0069111170325997
  12    -0.0043752743065809
  13    0.0071566331901185
  14    0.0058051192931541
  15     0.071619234986533
  16      0.37746863242955
  17     -0.59629297926391
  18      0.24122148716641
  19      0.50949337812004
  20    0.0068639378819019
  21     0.036456214298986
  22    -0.057531595644322
  23     0.023269088302057
  24     0.049064153830762
  25    -0.0022591119865942
  26    -0.0006140406307412
  27    0.00092745169337107
  28    -0.0016887073700499
  29    -0.0035464392491783
  30    0.0025576443245179
  31    0.00033431233900016
  32    0.00021062117321996
  33    -0.00090653512411719
  34    0.0012159768005912
  35    0.0026582057801096
  36    -0.0051281926530196
  37    -0.0018032517273032
  38    0.0028485549046112
  39    0.0021072538476595
  40    0.0052378892664139
  41    -0.0082772696740508
  42    -0.0061261463271492
  43    -0.0066935805067283
  44     0.010714727011744
  45    0.0080926271343462
  46     0.002174074339349
  47     0.011393899604442
  48    -0.017924194032077
  49    0.0072681843264717
  50     0.015335673859274
  51    0.0021705099007068
  52     0.011654706076977
  53    -0.018387845834868
  54    0.0074336614952466
  55      0.01568768058989
  56    -0.0017897917652622
  57    -0.00047545568841778
  58    0.00075263831830873
  59    -0.001334688398984
  60    -0.0028262752756269
  61    0.0020255943860279
  62    0.00024970544142055
  63     0.046389279652773
  64      0.12637012811295
  65     0.059196482075498
  66      0.14818386122094
  67     -0.23342292124983
  68     -0.17213155396983
  69    0.0011514540641695
  70    -0.0017256942344688
  71    -0.0010637836627976
  72    0.0018788301911216
  73    0.0099275752892907
  74    -0.015667763229873
  75    0.0063387045866098
  76     0.013416829041919
  77    -0.017270016971297
  78    -0.045993906845505
  79    -0.032502334079541
  80    -0.064055454037708
  81    -0.025311187212626
  82    -0.021202209282421
  83     0.030380482597502
  84     0.012533490185192
  85     0.010598092923754
  86    -0.0012017869910441
  87    0.0015079018265267
  88    0.0014222394371897
  89    0.0013848479736341
  90    0.0016763562604172
  91    0.0075507513074801
  92    0.0064913024499493
  93    0.0018757677462384
  94    0.00098078188801052
  95    0.0013631471255359
  96    0.0060259408671352
  97    0.0066133483855254
  98    0.0036839691835313
  99    0.0021613383718172
 100    0.00040777286085303
 101    0.0054207065449041
 102    0.0078268628038982
 103    0.0036383804131524
 104    0.0010287370062121
 105    0.0018477602604627
 106     -0.01734628336055
 107    -0.046172126050842
 108    -0.032678365427637
 109    -0.0016451901871017
 110     -0.04485251772861
 111     0.057296574821151
 112    0.0011041940808229
 113     0.021706901549432
 114    -0.027278371331065
 115    0.0009833726111692
 116    -0.00028463206506972
 117    -0.002530362302173
 118    -0.0016327532706514
 119    -0.00059667825655865
 120    0.0057654934940636
 121    0.0085318008851928
 122    0.00057231776098619
 123      0.00264038538916
 124    -0.0029602149678763
 125    0.0072954317673827
 126    0.0065046930838568
 127    0.00053807039291593
 128    0.0023245906714049
 129    -0.0017016395903761
 130    0.0059204337184885
 131    0.0066043650907329
 132    -0.00097867585796243
 133    0.0022147301635942
 134    -0.003439342216603
 135    -0.017315659281594
 136    -0.046108966075567
 137    -0.032622303247283
 138    0.0036121535031831
 139     0.044199470850428
 140    -0.057012287909316
 141    -0.001850555412625
 142    -0.020643674101647
 143     0.027736427670559
 144    0.0019286093140176
 145    -0.00081584163677902
 146    -0.0022471691588075
 147    -0.0010222551541206
 148    -0.00018327911981561
 149    0.0075427825146662
 150    0.0065555953626114
 151    1.7355450878204e-05
 152    -0.00092515087782633
 153    0.0023380055170106
 154     0.005568936999766
 155    0.0077693826915452
 156    0.00045685111611623
 157    -0.002251775567169
 158    0.0035195585187699
 159    0.0059500731423535
 160    0.0066223487222021
 161    -0.0011919197757513
 162    -0.0028543743669882
 163     0.003007328858623
 164    -0.017323069289707
 165    -0.046133059575703
 166    -0.032506118784635
 167     0.064911926335447
 168     0.023627770811922
 169     0.022193664450288
 170    -0.031295383377516
 171    -0.011227144246176
 172    -0.010096465756713
 173    -0.0015429492020249
 174    0.0011037136113947
 175    0.00092650236288436
 176    0.0022290610315234
 177    0.00097640231720103
 178    0.0057936627695109
 179    0.0067045572195008
 180    -0.0037195138872646
 181    -0.0005996478731359
 182    -0.0020811839163708
 183    0.0075672890221997
 184    0.0065333560901709
 185    -0.002573191489279
 186    -0.00081812410481466
 187    -5.4796695885017e-06
 188    0.0056008358564491
 189    0.0081378538972565
 190    -0.0036855859324339
 191    -0.0017221950335629
 192    -0.00069672547758916
 193     0.035162377797976
 194     0.092427283651309
 195     0.073232536148421
 196     0.065207497391707
 197     -0.10209588725893
 198    -0.074990943479658
 199    -0.033369969444988
 200     0.051746543591913
 201     0.037687861093645
 202    0.00053689446112409
 203    0.0027754034813579
 204    -0.004361997747085
 205    0.0017700146399818
 206    0.0037445379751249
 207    -0.013964918964353
 208    -0.012434696330832
 209    -0.0027488063801839
 210    0.0059369959387855
 211    0.0024931063963759
 212    -0.014171930475564
 213    -0.012532791584209
 214    -0.0044786684872071
 215    0.0040592846283185
 216    0.0034988450431834
 217    -0.013217983601963
 218    -0.012393104256394
 219    -0.0022577285041346
 220    0.0047297076814044
 221    0.0047361977218503
 222    -0.0013596163741239
 223    -0.0040860772986669
 224    -0.0035133105005071
 225    0.0043689182230751
 226    0.0022266583550896
 227    0.0018701643958505
 228    -0.0025739761717187
 229    -0.0017737727635571
 230    -0.0018082960554954
 231    -0.00015577952828139
 232    -0.00022930254261889
 233    5.651684494733e-05
 234    0.00020963902249906
 235    -0.00031088640172127
 236    0.00030858608589148
 237    5.9229782229497e-05
 238    -8.6976944379086e-05
 239    -9.2874891880504e-05
 240    -0.00018854586282649
 241    4.4494393268796e-05
 242    -0.00018903797892015
 243    -0.00051610201393038
 244    -0.00015726663986059
 245    -5.4853025562232e-05
 246    0.00069119593064418
 247    0.00030368310726698
 248    -0.00038676961552743
 249    -4.5308764102376e-05
 250    -0.00014126210667836
 251    -0.0013399796960269
 252    -0.0039916093004287
 253    -0.0036459505750354
 254    -9.7490762294669e-05
 255    0.0036722075662562
 256    -0.0037973148095283
 257    -7.4141415925823e-05
 258    -0.0029553182308724
 259    0.0022184905649531
 260    0.00028561780670806
 261    -0.00025697279514263
 262    0.00022773933933675
 263    7.3996700712548e-05
 264    -7.4685692446329e-05
 265    0.00063408627305231
 266    0.0002073304578298
 267    -0.00012558745071402
 268    -0.00023294863985202
 269    0.00035086487184373
 270    0.00048476691448225
 271    0.00015670801257931
 272    -2.1025770913137e-05
 273    -0.00019167274034582
 274    -5.2242426709126e-05
 275    5.501866704456e-05
 276    -0.00026142547236137
 277    -2.6963715325034e-06
 278    -0.00024127913304691
 279    0.00052592985521032
 280    -0.0013394514403189
 281    -0.0039954461492287
 282    -0.0036296723843711
 283    -0.0049716921347437
 284    -0.0013043800904653
 285    -0.0012350836765287
 286      0.00361984443994
 287    0.00075269984822014
 288    0.00026864293861517
 289    6.4076324762347e-05
 290    4.4779675510282e-05
 291    0.00035391242940323
 292    -0.00027927338224002
 293    4.5450792599645e-05
 294    0.00064559764822327
 295    0.00022421074921676
 296    0.00034227197848457
 297    0.00024465056349363
 298    0.00010145763972228
 299    4.9700930202299e-05
 300    -0.00024304410571565
 301    0.00044788720851151
 302    0.00021801768096645
 303    0.00028454702495152
 304    0.00046033269601886
 305    0.00011607086053687
 306    0.00015485201492319
 307    -1.5542276045971e-05
 308    -0.00012904530922375
 309    -0.0013702800861785
 310    -0.004129150544631
 311    -0.0034338121908873
 312    -0.00049996849956959
 313    -0.0027692218817575
 314    0.0044009585261472
 315    0.00048475897661555
 316    0.0012048435332188
 317    -0.0034084929907903
 318    -0.00027788787619693
 319    1.4189107283349e-05
 320    5.2726036919928e-05
 321    -0.00028470967596576
 322    -0.00025897804393014
 323    0.00075623928390894
 324    0.00038511417587966
 325    -5.2749623133806e-05
 326    0.00025694134374362
 327    -0.00028655256494662
 328    -1.8887184418837e-06
 329    -0.00029294298063374
 330    4.118704709513e-05
 331    0.00036837686579214
 332    -0.00034760755820775
 333    0.00019981556578018
 334    -8.5873153061019e-05
 335    -1.9487055957696e-05
 336    6.4700386476532e-05
 337    -0.00026969261036341
 338    0.0029604701701094
 339    0.0091060249868344
 340    0.0039065161585258
 341    -0.0061828477419486
 342    0.0097032242195888
 343    0.0071073150262118
 344    0.0031440583606946
 345    -0.0049445607123823
 346    -0.0036386781513696
 347    -3.4929087268324e-05
 348    -0.00018651944840956
 349    0.00029614498242196
 350    -0.00011989148007151
 351    -0.0002541695629944
 352    -0.0011483367418194
 353    -0.00053427242005573
 354    0.00031663551082997
 355    -0.00040097311253806
 356    -0.00030374512022643
 357    -0.0011471096452123
 358    -0.00051371044484927
 359    0.00026438069630845
 360    -0.00046019981318685
 361    -0.00027230631945111
 362    -0.0011031493856465
 363    -0.0005963305371209
 364    0.00024702840789571
 365    -0.00042216856618621
 366    -0.00034178105156539
