[Molden Format]
made by pyscf v[2.11.0]
[Atoms] (AU)
Cr   1   24     1.56143912275337    -2.46507591990239    -1.82404491365355
Cr   2   24    -1.56139565905251     2.46513072196000     1.82399011159594
O   3   8     0.00002078698737     0.00002834589187    -0.00002645616574
N   4   7     5.12832174930954    -1.10581670549011    -0.60767356069801
H   5   1     6.65216855026694    -1.66292686427314    -1.66487895135981
H   6   1     5.63710405218294    -1.59213394419468     1.18765885421890
H   7   1     5.20084187906585     0.81566059741989    -0.65509245834172
N   8   7     1.71230729763415    -0.02251608677419    -4.99594076510539
H   9   1     0.29795878723855     1.27247165241550    -4.90823668593820
H   10   1     1.50271021425414    -0.85583806455427    -6.73026148236459
H   11   1     3.34039895052705     0.99863710888315    -5.18656310846864
N   12   7     1.41057094787259    -4.90763575303059     1.34785282752440
H   13   1     1.64193389675534    -6.79355407945465     0.97314659318890
H   14   1    -0.29048681014202    -4.81040367474334     2.24006056107205
H   15   1     2.72468082571676    -4.56691435331926     2.71738081369757
N   16   7    -2.00544350380280    -3.82433513431467    -3.04041437688297
H   17   1    -2.87205678671934    -5.05516478184926    -1.83221042023780
H   18   1    -2.03637832046193    -4.76397121413665    -4.73247136936628
H   19   1    -3.24475802163669    -2.37551046050250    -3.28123540501917
N   20   7     3.37923471211299    -5.33493873459111    -3.94755661599306
H   21   1     4.17102617885350    -4.76109883042731    -5.61685374703210
H   22   1     2.26176595533881    -6.82326057413281    -4.47610923358166
H   23   1     4.85383336053810    -6.19899521806112    -3.03922195969837
N   24   7    -5.12827828560868     1.10587339727385     0.60762064836653
H   25   1    -5.15408816501799    -0.81544705836782     0.54662784797006
H   26   1    -5.69743166898356     1.68113626520945    -1.14337690194197
H   27   1    -6.63528195761783     1.56841410187914     1.73267665553083
N   28   7    -1.71226383393328     0.02257088883181     4.99588785277390
H   29   1    -1.62991523860311     0.86667375415253     6.73575491620870
H   30   1    -0.22416876152653    -1.19157625647512     4.98456461383551
H   31   1    -3.28782110056328    -1.08746368536834     5.11339858210385
N   32   7     2.00548696750367     3.82438993637228     3.04035957482536
H   33   1     2.05186651577887     4.68410571893416     4.77402266739321
H   34   1     2.83712330958063     5.12208376337235     1.87805706574587
H   35   1     3.26582090902109     2.38241174030942     3.19051154350492
N   36   7    -1.41052748417173     4.90769055508820    -1.34790762958202
H   37   1    -1.75003190025884     6.78104976168840    -0.99229329828299
H   38   1    -2.65834387984003     4.49309409198925    -2.75785496783350
H   39   1     0.32278033988471     4.89894112313146    -2.18344058692784
N   40   7    -3.37919124841212     5.33499353664873     3.94750181393545
H   41   1    -2.26357064378777     6.83195331430581     4.45515784003860
H   42   1    -4.15358022727151     4.76963661305810     5.62761006813313
H   43   1    -4.86681766873998     6.18449345978121     3.04686590187224
[GTO]
1 0
 s    6 1.00
          51528.086349  0.0017695545768669
          7737.2103487   0.013556436258096
           1760.374847   0.067162645785071
          496.87706544    0.23295905918518
          161.46520598    0.47040576982722
          55.466352268    0.35733072606876
 s    3 1.00
          107.54732999   -0.10605255446629
          12.408671897    0.62543981484169
          5.0423628826    0.44878820793655
 s    3 1.00
          8.5461640165   -0.21819012081133
          1.3900441221    0.70422525667731
         0.56066602876    0.42488555412558
 s    1 1.00
        0.071483705972                   1
 s    1 1.00
        0.028250687604                   1
 p    5 1.00
          640.48536096  0.0093555063746755
          150.69711194   0.068993338492216
          47.503755296     0.2634118959318
          16.934120165    0.51034501651775
           6.240968059    0.33195512953954
 p    3 1.00
          3.0885463206    0.32917682676976
          1.1791047769    0.55491385190365
         0.43369774432    0.23818412855984
 p    1 1.00
              0.120675                   1
 d    4 1.00
          27.559479426   0.036950140313562
          7.4687020327    0.18821519783039
          2.4345903574    0.44641244239929
         0.78244754808     0.5681617303244
 d    1 1.00
         0.21995774311                   1
 f    1 1.00
                 1.147                   1

2 0
 s    6 1.00
          51528.086349  0.0017695545768669
          7737.2103487   0.013556436258096
           1760.374847   0.067162645785071
          496.87706544    0.23295905918518
          161.46520598    0.47040576982722
          55.466352268    0.35733072606876
 s    3 1.00
          107.54732999   -0.10605255446629
          12.408671897    0.62543981484169
          5.0423628826    0.44878820793655
 s    3 1.00
          8.5461640165   -0.21819012081133
          1.3900441221    0.70422525667731
         0.56066602876    0.42488555412558
 s    1 1.00
        0.071483705972                   1
 s    1 1.00
        0.028250687604                   1
 p    5 1.00
          640.48536096  0.0093555063746755
          150.69711194   0.068993338492216
          47.503755296     0.2634118959318
          16.934120165    0.51034501651775
           6.240968059    0.33195512953954
 p    3 1.00
          3.0885463206    0.32917682676976
          1.1791047769    0.55491385190365
         0.43369774432    0.23818412855984
 p    1 1.00
              0.120675                   1
 d    4 1.00
          27.559479426   0.036950140313562
          7.4687020327    0.18821519783039
          2.4345903574    0.44641244239929
         0.78244754808     0.5681617303244
 d    1 1.00
         0.21995774311                   1
 f    1 1.00
                 1.147                   1

3 0
 s    5 1.00
          2266.1767785  -0.0053893503921743
          340.87010191   -0.04023472138896
          77.363135167   -0.18008184205526
           21.47964494   -0.46828857657651
          6.6589433124   -0.44692617160187
 s    1 1.00
         0.80975975668                   1
 s    1 1.00
         0.25530772234                   1
 p    3 1.00
          17.721504317   0.062630248763161
           3.863550544    0.33331138482352
          1.0480920883    0.74148638308122
 p    1 1.00
         0.27641544411                   1
 d    1 1.00
                   1.2                   1

4 0
 s    5 1.00
          1712.8415853  -0.0054477995804909
          257.64812677  -0.040627174632423
          58.458245853   -0.18111962250584
          16.198367905   -0.46843975563173
          5.0052600809   -0.44616846289231
 s    1 1.00
         0.58731856571                   1
 s    1 1.00
         0.18764592253                   1
 p    3 1.00
          13.571470233  -0.058848116969522
          2.9257372874   -0.32024624762471
         0.79927750754   -0.75328226520436
 p    1 1.00
         0.21954348034                   1
 d    1 1.00
                     1                   1

5 0
 s    3 1.00
             13.010701   0.033485484812989
             1.9622572    0.23472187088125
            0.44453796    0.81377028525955
 s    1 1.00
            0.12194962                   1
 p    1 1.00
                   0.8                   1

6 0
 s    3 1.00
             13.010701   0.033485484812989
             1.9622572    0.23472187088125
            0.44453796    0.81377028525955
 s    1 1.00
            0.12194962                   1
 p    1 1.00
                   0.8                   1

7 0
 s    3 1.00
             13.010701   0.033485484812989
             1.9622572    0.23472187088125
            0.44453796    0.81377028525955
 s    1 1.00
            0.12194962                   1
 p    1 1.00
                   0.8                   1

8 0
 s    5 1.00
          1712.8415853  -0.0054477995804909
          257.64812677  -0.040627174632423
          58.458245853   -0.18111962250584
          16.198367905   -0.46843975563173
          5.0052600809   -0.44616846289231
 s    1 1.00
         0.58731856571                   1
 s    1 1.00
         0.18764592253                   1
 p    3 1.00
          13.571470233  -0.058848116969522
          2.9257372874   -0.32024624762471
         0.79927750754   -0.75328226520436
 p    1 1.00
         0.21954348034                   1
 d    1 1.00
                     1                   1

9 0
 s    3 1.00
             13.010701   0.033485484812989
             1.9622572    0.23472187088125
            0.44453796    0.81377028525955
 s    1 1.00
            0.12194962                   1
 p    1 1.00
                   0.8                   1

10 0
 s    3 1.00
             13.010701   0.033485484812989
             1.9622572    0.23472187088125
            0.44453796    0.81377028525955
 s    1 1.00
            0.12194962                   1
 p    1 1.00
                   0.8                   1

11 0
 s    3 1.00
             13.010701   0.033485484812989
             1.9622572    0.23472187088125
            0.44453796    0.81377028525955
 s    1 1.00
            0.12194962                   1
 p    1 1.00
                   0.8                   1

12 0
 s    5 1.00
          1712.8415853  -0.0054477995804909
          257.64812677  -0.040627174632423
          58.458245853   -0.18111962250584
          16.198367905   -0.46843975563173
          5.0052600809   -0.44616846289231
 s    1 1.00
         0.58731856571                   1
 s    1 1.00
         0.18764592253                   1
 p    3 1.00
          13.571470233  -0.058848116969522
          2.9257372874   -0.32024624762471
         0.79927750754   -0.75328226520436
 p    1 1.00
         0.21954348034                   1
 d    1 1.00
                     1                   1

13 0
 s    3 1.00
             13.010701   0.033485484812989
             1.9622572    0.23472187088125
            0.44453796    0.81377028525955
 s    1 1.00
            0.12194962                   1
 p    1 1.00
                   0.8                   1

14 0
 s    3 1.00
             13.010701   0.033485484812989
             1.9622572    0.23472187088125
            0.44453796    0.81377028525955
 s    1 1.00
            0.12194962                   1
 p    1 1.00
                   0.8                   1

15 0
 s    3 1.00
             13.010701   0.033485484812989
             1.9622572    0.23472187088125
            0.44453796    0.81377028525955
 s    1 1.00
            0.12194962                   1
 p    1 1.00
                   0.8                   1

16 0
 s    5 1.00
          1712.8415853  -0.0054477995804909
          257.64812677  -0.040627174632423
          58.458245853   -0.18111962250584
          16.198367905   -0.46843975563173
          5.0052600809   -0.44616846289231
 s    1 1.00
         0.58731856571                   1
 s    1 1.00
         0.18764592253                   1
 p    3 1.00
          13.571470233  -0.058848116969522
          2.9257372874   -0.32024624762471
         0.79927750754   -0.75328226520436
 p    1 1.00
         0.21954348034                   1
 d    1 1.00
                     1                   1

17 0
 s    3 1.00
             13.010701   0.033485484812989
             1.9622572    0.23472187088125
            0.44453796    0.81377028525955
 s    1 1.00
            0.12194962                   1
 p    1 1.00
                   0.8                   1

18 0
 s    3 1.00
             13.010701   0.033485484812989
             1.9622572    0.23472187088125
            0.44453796    0.81377028525955
 s    1 1.00
            0.12194962                   1
 p    1 1.00
                   0.8                   1

19 0
 s    3 1.00
             13.010701   0.033485484812989
             1.9622572    0.23472187088125
            0.44453796    0.81377028525955
 s    1 1.00
            0.12194962                   1
 p    1 1.00
                   0.8                   1

20 0
 s    5 1.00
          1712.8415853  -0.0054477995804909
          257.64812677  -0.040627174632423
          58.458245853   -0.18111962250584
          16.198367905   -0.46843975563173
          5.0052600809   -0.44616846289231
 s    1 1.00
         0.58731856571                   1
 s    1 1.00
         0.18764592253                   1
 p    3 1.00
          13.571470233  -0.058848116969522
          2.9257372874   -0.32024624762471
         0.79927750754   -0.75328226520436
 p    1 1.00
         0.21954348034                   1
 d    1 1.00
                     1                   1

21 0
 s    3 1.00
             13.010701   0.033485484812989
             1.9622572    0.23472187088125
            0.44453796    0.81377028525955
 s    1 1.00
            0.12194962                   1
 p    1 1.00
                   0.8                   1

22 0
 s    3 1.00
             13.010701   0.033485484812989
             1.9622572    0.23472187088125
            0.44453796    0.81377028525955
 s    1 1.00
            0.12194962                   1
 p    1 1.00
                   0.8                   1

23 0
 s    3 1.00
             13.010701   0.033485484812989
             1.9622572    0.23472187088125
            0.44453796    0.81377028525955
 s    1 1.00
            0.12194962                   1
 p    1 1.00
                   0.8                   1

24 0
 s    5 1.00
          1712.8415853  -0.0054477995804909
          257.64812677  -0.040627174632423
          58.458245853   -0.18111962250584
          16.198367905   -0.46843975563173
          5.0052600809   -0.44616846289231
 s    1 1.00
         0.58731856571                   1
 s    1 1.00
         0.18764592253                   1
 p    3 1.00
          13.571470233  -0.058848116969522
          2.9257372874   -0.32024624762471
         0.79927750754   -0.75328226520436
 p    1 1.00
         0.21954348034                   1
 d    1 1.00
                     1                   1

25 0
 s    3 1.00
             13.010701   0.033485484812989
             1.9622572    0.23472187088125
            0.44453796    0.81377028525955
 s    1 1.00
            0.12194962                   1
 p    1 1.00
                   0.8                   1

26 0
 s    3 1.00
             13.010701   0.033485484812989
             1.9622572    0.23472187088125
            0.44453796    0.81377028525955
 s    1 1.00
            0.12194962                   1
 p    1 1.00
                   0.8                   1

27 0
 s    3 1.00
             13.010701   0.033485484812989
             1.9622572    0.23472187088125
            0.44453796    0.81377028525955
 s    1 1.00
            0.12194962                   1
 p    1 1.00
                   0.8                   1

28 0
 s    5 1.00
          1712.8415853  -0.0054477995804909
          257.64812677  -0.040627174632423
          58.458245853   -0.18111962250584
          16.198367905   -0.46843975563173
          5.0052600809   -0.44616846289231
 s    1 1.00
         0.58731856571                   1
 s    1 1.00
         0.18764592253                   1
 p    3 1.00
          13.571470233  -0.058848116969522
          2.9257372874   -0.32024624762471
         0.79927750754   -0.75328226520436
 p    1 1.00
         0.21954348034                   1
 d    1 1.00
                     1                   1

29 0
 s    3 1.00
             13.010701   0.033485484812989
             1.9622572    0.23472187088125
            0.44453796    0.81377028525955
 s    1 1.00
            0.12194962                   1
 p    1 1.00
                   0.8                   1

30 0
 s    3 1.00
             13.010701   0.033485484812989
             1.9622572    0.23472187088125
            0.44453796    0.81377028525955
 s    1 1.00
            0.12194962                   1
 p    1 1.00
                   0.8                   1

31 0
 s    3 1.00
             13.010701   0.033485484812989
             1.9622572    0.23472187088125
            0.44453796    0.81377028525955
 s    1 1.00
            0.12194962                   1
 p    1 1.00
                   0.8                   1

32 0
 s    5 1.00
          1712.8415853  -0.0054477995804909
          257.64812677  -0.040627174632423
          58.458245853   -0.18111962250584
          16.198367905   -0.46843975563173
          5.0052600809   -0.44616846289231
 s    1 1.00
         0.58731856571                   1
 s    1 1.00
         0.18764592253                   1
 p    3 1.00
          13.571470233  -0.058848116969522
          2.9257372874   -0.32024624762471
         0.79927750754   -0.75328226520436
 p    1 1.00
         0.21954348034                   1
 d    1 1.00
                     1                   1

33 0
 s    3 1.00
             13.010701   0.033485484812989
             1.9622572    0.23472187088125
            0.44453796    0.81377028525955
 s    1 1.00
            0.12194962                   1
 p    1 1.00
                   0.8                   1

34 0
 s    3 1.00
             13.010701   0.033485484812989
             1.9622572    0.23472187088125
            0.44453796    0.81377028525955
 s    1 1.00
            0.12194962                   1
 p    1 1.00
                   0.8                   1

35 0
 s    3 1.00
             13.010701   0.033485484812989
             1.9622572    0.23472187088125
            0.44453796    0.81377028525955
 s    1 1.00
            0.12194962                   1
 p    1 1.00
                   0.8                   1

36 0
 s    5 1.00
          1712.8415853  -0.0054477995804909
          257.64812677  -0.040627174632423
          58.458245853   -0.18111962250584
          16.198367905   -0.46843975563173
          5.0052600809   -0.44616846289231
 s    1 1.00
         0.58731856571                   1
 s    1 1.00
         0.18764592253                   1
 p    3 1.00
          13.571470233  -0.058848116969522
          2.9257372874   -0.32024624762471
         0.79927750754   -0.75328226520436
 p    1 1.00
         0.21954348034                   1
 d    1 1.00
                     1                   1

37 0
 s    3 1.00
             13.010701   0.033485484812989
             1.9622572    0.23472187088125
            0.44453796    0.81377028525955
 s    1 1.00
            0.12194962                   1
 p    1 1.00
                   0.8                   1

38 0
 s    3 1.00
             13.010701   0.033485484812989
             1.9622572    0.23472187088125
            0.44453796    0.81377028525955
 s    1 1.00
            0.12194962                   1
 p    1 1.00
                   0.8                   1

39 0
 s    3 1.00
             13.010701   0.033485484812989
             1.9622572    0.23472187088125
            0.44453796    0.81377028525955
 s    1 1.00
            0.12194962                   1
 p    1 1.00
                   0.8                   1

40 0
 s    5 1.00
          1712.8415853  -0.0054477995804909
          257.64812677  -0.040627174632423
          58.458245853   -0.18111962250584
          16.198367905   -0.46843975563173
          5.0052600809   -0.44616846289231
 s    1 1.00
         0.58731856571                   1
 s    1 1.00
         0.18764592253                   1
 p    3 1.00
          13.571470233  -0.058848116969522
          2.9257372874   -0.32024624762471
         0.79927750754   -0.75328226520436
 p    1 1.00
         0.21954348034                   1
 d    1 1.00
                     1                   1

41 0
 s    3 1.00
             13.010701   0.033485484812989
             1.9622572    0.23472187088125
            0.44453796    0.81377028525955
 s    1 1.00
            0.12194962                   1
 p    1 1.00
                   0.8                   1

42 0
 s    3 1.00
             13.010701   0.033485484812989
             1.9622572    0.23472187088125
            0.44453796    0.81377028525955
 s    1 1.00
            0.12194962                   1
 p    1 1.00
                   0.8                   1

43 0
 s    3 1.00
             13.010701   0.033485484812989
             1.9622572    0.23472187088125
            0.44453796    0.81377028525955
 s    1 1.00
            0.12194962                   1
 p    1 1.00
                   0.8                   1

[5d]
[7f]
[9g]

[MO]
 Sym= A
 Ene=               0
 Spin= Alpha
 Occup=    1.00000
   1    1.7163851899976e-06
   2    -3.9087879667368e-06
   3    2.8422354923686e-05
   4    -0.0001095950584118
   5    -0.00012967692227489
   6    -5.4359774679146e-06
   7    -4.3436636920903e-07
   8    -1.2962908186689e-05
   9    1.9411997448195e-05
  10    1.8469281966396e-06
  11    4.4998733115945e-05
  12    -6.8986398422607e-05
  13    -2.6806332159858e-05
  14    -0.0001318765135797
  15    0.00010821879380304
  16    0.00015258978807603
  17    1.4855845377414e-05
  18    3.6238169281353e-05
  19    -9.5178491642846e-05
  20    -0.00013932409423785
  21    -0.00012601132142715
  22    -7.3088899071287e-05
  23    -1.3732603340404e-05
  24    5.045649588536e-05
  25    -8.5741066296384e-06
  26    -2.0454736858493e-06
  27    -1.316397355646e-05
  28    5.428156626487e-06
  29    -6.9661713232593e-07
  30    -1.2119690409751e-06
  31    -6.0626669392247e-07
  32    -9.7116853088905e-06
  33    2.563948110774e-05
  34    -0.00014424642433354
  35    0.0003007973130214
  36    0.00032007783107019
  37    -0.00022384277183478
  38    3.855962904315e-05
  39    -0.00023983060270793
  40    0.00072858993141488
  41    -0.00012622951442512
  42    0.00077898673144932
  43    -0.0011357045550943
  44     0.000226069036207
  45    -0.0011003999140219
  46     -0.38142262703009
  47     -0.63571479871782
  48    -0.075921442529186
  49     -0.15846944788154
  50      0.51078538236124
  51    -0.080990529668026
  52     -0.13504399107691
  53    -0.016152415374555
  54    -0.033732166260903
  55       0.1085801904717
  56    -0.00099038229372908
  57    -0.00085504753191484
  58    -0.0006580003482686
  59    0.00054424975725703
  60    -0.00031850995530313
  61    -0.00080311809424008
  62    -0.00094123520749916
  63    -2.0327366362439e-05
  64    -4.882824145276e-05
  65    -3.0151918140546e-06
  66    -0.00054728827856038
  67    0.00018798872016551
  68    -0.000740946089872
  69    -0.00030052852846643
  70    0.00015389696269645
  71    -0.00043000366977075
  72    -0.00042550093366295
  73    -0.00069297699021587
  74    -9.4376050785974e-05
  75    -0.00017213037777105
  76    0.00055739106347794
  77    -5.4233910639479e-05
  78    -0.00018125311605778
  79    0.00046548124873526
  80    5.9419364998116e-06
  81    0.00016266844729422
  82    0.00021209795073187
  83    6.5802870792642e-05
  84    -5.7536645893823e-05
  85    -0.00019081484800028
  86    5.3736308012248e-06
  87    -1.9475251631535e-05
  88    1.1343229662769e-05
  89    1.5253481250208e-05
  90    -7.5199693053213e-07
  91    7.0015012124483e-05
  92    0.0001646025178315
  93    1.2289697112612e-08
  94    -7.7014290466395e-06
  95    -8.9824897014774e-06
  96    -4.7813626171257e-05
  97    -0.00038819006994918
  98    -3.0110329324488e-06
  99    -8.0929578014756e-06
 100    5.0608781817061e-05
 101    -0.00013682574166436
 102    -0.00061691161516591
 103    -4.0565004785219e-05
 104    2.7124039193851e-05
 105    1.7439523672311e-05
 106    2.136556787199e-05
 107    9.4705714773233e-05
 108    -0.00044452833238967
 109    -1.8544079403658e-05
 110    -0.00015741038324598
 111    -1.15771101784e-06
 112    0.00019144934832675
 113    9.0587928585366e-05
 114     0.000138552788386
 115    -1.7536372527828e-05
 116    -1.3539963266093e-05
 117    -1.2406700766104e-05
 118    1.2991444275499e-05
 119    4.0867869067447e-06
 120    9.8582792030872e-05
 121    0.00057020498065213
 122    7.9621586076088e-06
 123    -3.3606807577314e-05
 124    -6.0462129369391e-05
 125    -3.3023539562879e-06
 126    -6.6645725167079e-05
 127    -8.8346440313646e-06
 128     1.75622931258e-05
 129    1.1986386509653e-05
 130    4.3877472313461e-06
 131    0.00028518788173744
 132    -1.3993700492266e-05
 133    -1.8858835992943e-05
 134    -1.7322465353685e-05
 135    -5.5537815038914e-05
 136    -0.00017994142486312
 137    0.00045738704281513
 138    -6.372190205831e-05
 139    0.00010950625846797
 140    0.0002453349972854
 141    -1.276697323815e-05
 142    -0.00016482727284321
 143    -0.00012449963485215
 144    -3.3277809309958e-06
 145    -3.277750751903e-07
 146    9.7364930699383e-06
 147    -2.5186307285945e-05
 148    2.8237726904638e-06
 149    7.3616488224748e-05
 150    0.00015913675539506
 151    2.6576188516456e-06
 152    -4.9200645088448e-06
 153    -1.2148952880076e-05
 154    -0.00013969342868816
 155    -0.00066477236347715
 156    -2.5450843124908e-05
 157    4.6787793255454e-05
 158    9.3059672514093e-06
 159    -4.7751646166738e-05
 160    -0.00037210293975685
 161    3.0113419287624e-05
 162    2.6554928073982e-05
 163    3.2104445771492e-05
 164    4.0678916168127e-05
 165    0.00015175930994115
 166    -0.00054013656868685
 167    0.00019260511300465
 168    -4.6771962030533e-05
 169    -0.00011125738874608
 170    -7.6294771867943e-08
 171    -3.5663766741247e-05
 172    0.00024518573462583
 173    -1.9776136734232e-05
 174    -2.2187764140115e-06
 175    -1.8098889125282e-05
 176    -6.4017886061909e-06
 177    3.9675437590028e-06
 178    1.4512499889729e-05
 179    0.00044347084140891
 180    1.3688936288814e-05
 181    1.3515973231197e-05
 182    -3.8450508888083e-05
 183    -2.7306028099794e-05
 184    -0.00013298428923769
 185    -1.4081228101788e-05
 186    1.3522585069048e-05
 187    7.8015520803518e-06
 188    0.00013822433643762
 189    0.00069817728000013
 190    8.3196017819864e-06
 191    -5.2988787822784e-05
 192    -4.6441435317604e-05
 193    -3.0000937606793e-06
 194    -4.8956280634225e-06
 195    -2.463720374353e-05
 196    1.3879132961841e-05
 197    2.3863064069566e-06
 198    2.3739384171517e-05
 199    -4.3426796776972e-05
 200    1.2853158000226e-05
 201    -4.6753656631056e-05
 202    2.0406073733595e-06
 203    -3.1360245188136e-06
 204    1.9033082043024e-06
 205    -2.1047774412373e-06
 206    5.1578334257245e-06
 207    1.0074707522818e-05
 208    -4.9623664319129e-06
 209    4.0690089246835e-06
 210    -1.9887343474651e-07
 211    -3.2754495347378e-07
 212    1.0993549315929e-05
 213    -1.0645454904497e-06
 214    1.0930105032458e-06
 215    -3.6447953565543e-06
 216    1.5168848203972e-06
 217    -1.5911140899032e-05
 218    6.9093422463815e-05
 219    -5.4692435707788e-06
 220    4.8338288632651e-06
 221    -3.2400105375758e-07
 222    3.3172958088488e-07
 223    -2.6980851764362e-05
 224    0.00058203829283005
 225    -0.0013933982023868
 226    -0.012716201018601
 227     0.015799196381256
 228      0.00167137097485
 229    0.0082695922925367
 230    -0.011482830665524
 231     0.002497517036208
 232    0.0033546561709381
 233    -0.00015203923727319
 234    0.00095655691523285
 235    -0.0021989558094361
 236    -0.016195921120764
 237    -0.0089475374831293
 238    0.00010001272565597
 239    -0.0012990849725424
 240    -0.00078496321164614
 241     0.024760714332487
 242     0.011526967494604
 243    0.00070527911960644
 244    -0.00021327912205977
 245    0.0014756556134656
 246    -0.0093523898927234
 247    -0.0037461043821833
 248    -0.0006426405947424
 249    0.00089104190796692
 250    -0.00011829422764351
 251    1.0556032328993e-05
 252    9.2934607038365e-05
 253    -0.00062085415995817
 254    -0.019205242839703
 255    -0.0069181482821542
 256    -0.0068682548639709
 257     0.012723851639132
 258    0.0052649006600679
 259    0.0054456499692012
 260    0.0021756000572421
 261    0.0028250248442557
 262    0.00067292849953935
 263    0.00045038156625602
 264    -0.0032183333322789
 265     0.013041057360094
 266     0.005459872586875
 267    0.00088094741947192
 268    -0.00039043301162795
 269    -0.00087023662370445
 270     0.013594518761606
 271    0.0074809918266308
 272    -0.00038747989847622
 273    0.0013263940950599
 274    0.00038665843791899
 275    -0.025971651460255
 276    -0.012278928845305
 277    -0.0014006460989554
 278    -0.0011352898400031
 279    0.00036082823564153
 280    -3.2061914948924e-06
 281    5.6325491560581e-05
 282    -0.00065423655693767
 283    0.00017582852673221
 284     0.012955436647735
 285    -0.017087565026744
 286    -0.00031954415128002
 287    -0.0080963780584776
 288     0.012310945658198
 289    0.0016698519222314
 290    0.0031885875251796
 291     0.001174830354565
 292    0.00075674783154565
 293    -0.0029596537204852
 294     0.012397478562896
 295    0.0051447862279913
 296    8.7477874627499e-05
 297    -0.0012108535894024
 298    -0.00037121875448725
 299    -0.025898371667117
 300    -0.012151423005009
 301    0.0010026298884178
 302    0.0012280957889361
 303    -0.00089393094637088
 304     0.014199772696508
 305    0.0077812786246044
 306    -0.0010702814285629
 307    0.00071726731491312
 308    0.00068528157148348
 309    4.9658788778834e-06
 310    5.2246638327807e-06
 311    0.00033453630803451
 312     0.018009887156544
 313    0.0071609888125464
 314     0.005612326156202
 315    -0.011998217639304
 316    -0.0055564092817939
 317    -0.004062502147005
 318    0.0020998399905905
 319    0.0037722855161502
 320    0.0004927876776243
 321    0.00069337337097178
 322    -0.001903623819947
 323    -0.0061680473872659
 324    -0.0024743590061389
 325    -0.00096673672101065
 326    0.00027646006883007
 327    -7.5626895872627e-05
 328     0.024172398557984
 329     0.011619711763247
 330    0.0007608228617465
 331    0.00025073521254243
 332    0.0014682344274693
 333    -0.018489457523504
 334    -0.0099068958865796
 335    0.0010585311465027
 336    -0.00040701394981896
 337    -0.0011305717195442
 338    -3.1599768533804e-05
 339    -8.2749497489105e-05
 340    1.174461255131e-05
 341    0.0015362609930657
 342    -0.00022138431076357
 343    0.0016220409953749
 344    -0.00093101929707582
 345    0.00015377905394173
 346    -0.00087485724677383
 347    -0.00023048652661742
 348    -0.0003625545850401
 349    -5.5270484284027e-05
 350    -8.6776093650575e-05
 351    0.00028404765460702
 352    -0.00047962535227402
 353    -0.00027485599257615
 354    0.00011402942903123
 355    0.00023598755676548
 356    -0.00023970932486365
 357    -0.00038360075130895
 358    -0.00026113292635888
 359    -0.00030811427175868
 360    -0.00017778754970755
 361    -3.909630669989e-05
 362    0.00090522889382646
 363    0.00026674971901621
 364    0.00019236625928654
 365    -7.8038271361886e-05
 366    0.00025316556145422
 Sym= A
 Ene=               1
 Spin= Alpha
 Occup=    1.00000
   1    1.4248645112251e-06
   2    -3.8108837056593e-06
   3    2.1305662645698e-05
   4    0.00029498318309617
   5    -0.00053931683100978
   6    0.0026084104077423
   7    0.0013128880953834
   8    0.00045836456933951
   9    -0.0087102257371433
  10    -0.0043745349602281
  11    -0.0015273910728107
  12     0.021898932372594
  13     0.010564725223422
  14    0.0037262600672347
  15    -8.5573994010123e-05
  16    -0.00011030905357883
  17    -5.7204006052806e-05
  18    0.00026606683120366
  19    -0.00013893504052344
  20    0.00084046725337778
  21    0.0026557910417013
  22    0.0026497104864257
  23    -0.0051715192638725
  24    0.0031822357020609
  25    0.00017407844770776
  26    6.3089394863922e-05
  27    0.00031719049226353
  28    -0.0012121808083375
  29    0.00039860921998675
  30    -4.9057952390447e-05
  31    -0.0013128731728852
  32    9.1419367457316e-06
  33    -2.2021713877132e-05
  34    0.00014436196535358
  35    -0.00087299355185056
  36    0.00061642682918302
  37    0.0040895015270362
  38    0.0020377474242915
  39    0.00070333443108061
  40    -0.013494834042264
  41    -0.0067173616322069
  42    -0.0023188130715746
  43     0.046501272931695
  44     0.022997163242251
  45    0.0080118605048675
  46      0.13291027919589
  47      0.36508034746434
  48      0.31822336444178
  49     -0.66109283259989
  50      0.39595242892209
  51     0.026703212101047
  52     0.072966548533459
  53     0.063019987303331
  54     -0.13158800628932
  55     0.078543299022226
  56    0.00035915204636143
  57    0.00011526716786588
  58    0.00080550901932326
  59    -0.0029744164362371
  60    0.0010460221283569
  61    -6.9652014852673e-05
  62    -0.0032101588787053
  63    -2.6485576658719e-05
  64    -8.6060692713543e-05
  65    0.00011509348119805
  66     0.096668782115944
  67     0.048699059397845
  68     0.017032120829946
  69       0.1017811045891
  70     0.051220034964096
  71     0.017836700427692
  72    -0.00089480574819588
  73    -0.0024737187559337
  74    -0.0021754607429778
  75    0.0044991509937983
  76    -0.0027063106612057
  77    -0.0032835839213976
  78    -0.0062818397004523
  79    -0.019723761086888
  80    -0.0080891813319644
  81    0.0024458941854035
  82    0.00045208049244951
  83    0.0080444603141444
  84    0.00052043229676633
  85    0.0053495354742301
  86    -5.1965659165541e-05
  87    -0.00034061402742274
  88    0.00011779989939019
  89    0.00061727243910814
  90    -0.00044582299008496
  91    0.0072189224797924
  92    0.0033679520120192
  93    -0.00024418948928631
  94    -3.0355634139155e-05
  95    0.00027093984863963
  96    -0.0013182435338238
  97    -0.00036239879933532
  98    0.00040460763926719
  99    -0.00028094275465874
 100    0.00012931227655996
 101    -0.004000610337306
 102     0.007290024369125
 103    -0.00068600894000765
 104    0.00016231960704514
 105    -8.51617823739e-05
 106    -0.00053908029441491
 107    -0.0013533448203236
 108    -0.0011783699654222
 109    0.00051285953702566
 110    4.4586855867549e-05
 111    0.0015878477331565
 112    -0.0028307874816523
 113    0.0016262733718621
 114    -0.001424489109326
 115    0.0001911382473752
 116    7.4739986313038e-05
 117    0.00017636190164311
 118    -8.5291558686105e-05
 119    -0.00011356168074462
 120    -0.0011191353251314
 121    -0.0018640581644073
 122    2.1822275414547e-05
 123    0.00032541280800515
 124    -1.7429366602304e-06
 125    0.0015395103609852
 126     0.002447839916739
 127    0.00014534274303616
 128    -3.182207298212e-05
 129    0.00011924932795818
 130    -0.00091020103451624
 131    -0.0012742773031329
 132    2.9119216920363e-05
 133    2.7836709994984e-05
 134    -0.00011360213293005
 135    0.00066210447608859
 136    0.00098153113385145
 137    0.0060054673553527
 138    0.0021816952023871
 139    -0.0011220493147774
 140    0.00062610867429826
 141    -0.0053751884636152
 142    0.00052461451300703
 143    -0.0013476898342791
 144    -3.152154828776e-05
 145    -0.00032491306885845
 146    3.7584285496635e-05
 147    7.8638974159521e-05
 148    0.00013682498945741
 149    -0.0010808767773164
 150    0.00075412523850805
 151    4.6929245963366e-05
 152    1.4877537630222e-06
 153    -4.7549679151961e-05
 154    0.00080918181067132
 155     -0.00649138515614
 156    -9.5452178515087e-05
 157    -0.00035933026351591
 158    0.00040972482804963
 159    -0.00077714090978061
 160    0.00088892571031763
 161    -0.00012373242731861
 162    0.00017164809844147
 163    -0.00010776049854891
 164    0.0032835901375647
 165    0.0062729396834502
 166     0.019531334252932
 167    -0.0029715263759127
 168    -0.0065029968680859
 169    -0.0045474191125535
 170    0.0076640673351183
 171    0.0055207340681543
 172    0.0011465492961445
 173    -0.00034346980706764
 174    -3.3755796906907e-05
 175    -0.00060120417836903
 176    0.00029523887626028
 177    -0.00033532580009462
 178    0.0008485211314859
 179    0.00071339757106453
 180    0.0001251394334113
 181    0.00048183158139098
 182    0.00016653829458866
 183    -0.0068868616799682
 184    -0.0033991290405504
 185    -5.0665892376829e-05
 186    6.7235027762328e-05
 187    -0.00037430380760567
 188    0.0040734843730802
 189    -0.0071435725954359
 190    -0.00030763560182406
 191    -0.00063386302404738
 192    -0.00040356839192846
 193    1.4375589000544e-05
 194    4.5259939735321e-05
 195    7.7377481473985e-05
 196    -0.00017985494959252
 197    -0.0001214641965672
 198    -5.3293939355813e-05
 199    9.3453707622235e-06
 200    -0.00024042149148375
 201    -0.00020404190290656
 202    2.2269357804498e-05
 203    2.8112657263016e-05
 204    8.2397921771521e-07
 205    -3.5679754203951e-05
 206    1.3387314541479e-05
 207    -3.8563944741728e-05
 208    -0.00058927723913372
 209    3.256072398435e-05
 210    -2.6678905109219e-05
 211    -3.5043397254178e-05
 212    1.1563422876004e-05
 213    0.00090297710483641
 214    -7.795808740026e-05
 215    7.561161760357e-05
 216    6.8656040385512e-05
 217    -3.5739175903484e-05
 218    -0.00076873702145742
 219    4.0421603871725e-05
 220    -5.5113811341687e-05
 221    -3.0849540534133e-05
 222    0.0042717118636068
 223    0.0067045156018948
 224     0.034769398025158
 225    -0.0026623756118357
 226    -0.014994455354454
 227    -0.012573266881037
 228     0.011019923161263
 229     0.014372369634384
 230     0.017796542943732
 231    -0.0010089110639712
 232    -0.0015450021507579
 233    -0.0013876453430252
 234    0.0029401166658733
 235    -0.0016665713502887
 236    -0.017538223676444
 237    -0.017795961598905
 238    -0.0012171829001473
 239    -0.0015204189561001
 240    0.00038468238284126
 241    -0.0039433474217126
 242    -0.0011709895807314
 243    -0.00015594447736158
 244    0.00056949077053235
 245    0.00025182035964281
 246     0.015400500733395
 247    0.0079294814085821
 248    0.0010801419797983
 249    2.3229338650784e-05
 250    -0.00083435212683216
 251    0.00066801194691539
 252    0.0013474429066947
 253    0.0034361281622175
 254    0.0017896505970897
 255    -0.002135638813544
 256    0.0010924161994438
 257    -0.0078842344083337
 258    0.0029049769120854
 259    -0.0032043328800956
 260    0.00064521710699709
 261    -0.00012455882071092
 262    0.00022526368086042
 263    3.0181473790677e-05
 264    0.0008034987518302
 265    0.0022502540658636
 266    -0.001208374488387
 267    0.00046627221823086
 268    4.2731819947808e-05
 269    -2.163694192414e-05
 270    -0.0024135518064442
 271    0.0015485565573106
 272    -1.3135845933125e-05
 273    0.00039957937760373
 274    0.00015896856529587
 275    -3.1720834426676e-05
 276    0.00076675330013522
 277    -6.8618349929219e-05
 278    -0.00018463001604911
 279    -0.00016488769051204
 280    -0.0041471565160825
 281    -0.0064060807800549
 282     -0.03424532553321
 283    -0.016850168203161
 284    0.0069008529130922
 285    0.0050154755433707
 286     0.024158602843022
 287    -0.0016900258106449
 288    -0.0032354606640932
 289    -0.0016069274177125
 290    -0.0013046118072222
 291    -0.0016753898438451
 292    0.0021195044281769
 293    -0.0023000556533078
 294    -0.014053390620315
 295    -0.0066828692264316
 296    0.00024131633413371
 297    0.00036857031205533
 298     0.001054670044584
 299    0.0017287921501891
 300    -0.00033920988158502
 301    0.00039843597983192
 302    -0.00026642801667369
 303    -0.00014899889619124
 304     0.018712372538156
 305     0.017734461861779
 306    -0.001499060911431
 307    0.00042388447770077
 308    -0.0012091494495029
 309    -0.00086610982226694
 310    -0.0012014005304038
 311    -0.008335797637451
 312    -0.0013706208973724
 313    0.0016166433400074
 314    0.0038314370266715
 315    -0.0067260901493668
 316    -0.0021521653685257
 317    -0.0063413024815205
 318    0.00080088931105191
 319    0.00029466446566263
 320    0.00038373756223386
 321    7.9278581489349e-05
 322    0.0004119139264281
 323    -0.0031518185651301
 324    -0.0029450766410866
 325    0.00060358118434316
 326    0.00047851848738927
 327    0.00017955704998318
 328    0.0010384868750954
 329    -0.0015593560291916
 330    3.7323476750553e-05
 331    -0.00029897865824826
 332    -0.00049938642630593
 333    0.0037075886780143
 334    0.0089034915732124
 335    -0.0007781379349812
 336    -0.00022176931312601
 337    0.00064704666162683
 338    1.2274967117952e-05
 339    -4.6181153907023e-06
 340    -1.6420404210248e-08
 341     0.019234172189708
 342     0.009532949059006
 343    0.0034404451992915
 344    -0.015492917562217
 345    -0.0079226026580403
 346    -0.0029535074718745
 347    -0.00013021687003977
 348    -0.0016783732233361
 349    -0.0019970256202199
 350    0.0032531177812335
 351    -0.0026068838126904
 352    -0.025589097251268
 353    -0.012899964067611
 354    0.00058340436427616
 355    0.0017973499021806
 356    0.0006266694679906
 357      0.00983628411805
 358    0.0051878577120147
 359    -0.00034336593413348
 360    -0.00013576444847444
 361    -0.0010822219327821
 362     0.015937461865267
 363    0.0082043194958312
 364    0.00052942753491127
 365    -0.001268151461878
 366    0.00060502569605599
 Sym= A
 Ene=               2
 Spin= Alpha
 Occup=    1.00000
   1    -2.6541567688126e-06
   2    6.540402539389e-06
   3    -4.1876918617272e-05
   4    -0.00080235914058813
   5    0.0018935527112267
   6    -0.00035525200361986
   7    0.0015931262930268
   8    -0.0024643886098071
   9    0.0011949445313478
  10    -0.0053308759201962
  11    0.0082201980314432
  12    -0.0034025515519391
  13     0.013896281694582
  14    -0.020221456105019
  15    0.00023114502363958
  16    -8.7016391995389e-05
  17    0.00011140388714185
  18    0.0001444149015702
  19    0.00015589287638966
  20    -0.0053705871564057
  21    0.0027180486567115
  22    -0.0023420571802677
  23    -0.0022709595035936
  24    -0.0024663401672704
  25    -0.0003657630349869
  26    0.00080326807927576
  27    -0.0014558916778917
  28    -0.00025434659933768
  29    0.00027349069933046
  30    0.00067028451263867
  31    -7.3218998515688e-05
  32    -2.0340306277896e-05
  33    5.0944879453632e-05
  34    -0.00031314552805486
  35    0.0018694722330227
  36    -0.0018184327277124
  37    -0.00057021705147277
  38    0.0025250091791461
  39    -0.0038513488885991
  40     0.001890444022204
  41    -0.0083413057591561
  42     0.012697521992526
  43    -0.0068188882715704
  44      0.02896637068287
  45    -0.043405086862996
  46     -0.70348792704082
  47      0.28668801937096
  48     -0.28740156596261
  49     -0.30456018571796
  50     -0.30599964605658
  51     -0.14012124137644
  52     0.056395257963553
  53    -0.057093624733722
  54    -0.060948021799752
  55    -0.060838166288451
  56    -0.00089313742922125
  57    0.0020434486122074
  58    -0.0035304450492576
  59    -0.00055098175974501
  60    0.00069450189716821
  61    0.0016578356070026
  62    -0.00022808251825393
  63    8.7173596181436e-05
  64    0.00025497851836071
  65    -0.0001459113510673
  66    -0.013280644899028
  67     0.059137130205203
  68    -0.091406560042753
  69    -0.014112639680311
  70     0.062342804674479
  71    -0.095944793732409
  72    0.0047783392904505
  73    -0.0019694785928789
  74    0.0019568693477375
  75    0.0020589923542825
  76    0.0020857080261612
  77    0.00052531707608658
  78    0.0013154136526122
  79    0.00098216123495639
  80    0.0013773602453751
  81    0.00093699406192647
  82    -0.0012068977958915
  83    -0.00099054334374844
  84    -0.0047192826056487
  85    0.0013506530777798
  86    0.00016494932418676
  87    0.00028339843334066
  88    -0.0001037061825279
  89    2.0504477678781e-05
  90    -3.1514449209297e-05
  91    -0.0016191552110858
  92    -0.0022775714108788
  93    0.00012233599068527
  94    7.6455389264701e-05
  95    -9.3682461164423e-05
  96    0.0013809193794922
  97    -0.00087616729525046
  98    7.2206241562249e-05
  99     3.23880967305e-05
 100    1.383610634919e-05
 101    0.0006513059568861
 102    0.0042806383287697
 103    -0.00026651572349952
 104    -0.00032573384542942
 105    -6.9402389263701e-05
 106    -0.0033265300020544
 107    -0.0060041648767229
 108    -0.021957801063341
 109    -0.0039449301028531
 110    0.00040915879627267
 111    0.0079203257303948
 112    0.0056581372227659
 113    0.0040563804915992
 114    -0.0076205660765533
 115    0.0006113797561801
 116    -0.00029273817248469
 117    0.00028081221583755
 118    6.9815830802214e-05
 119    0.00033666185543802
 120    -0.0039175896184301
 121     0.010853527223115
 122    -0.00031967642417886
 123    -0.00019681797980707
 124     0.001049690529253
 125     0.006228951868468
 126    0.0017683485505486
 127    0.00030368104378146
 128    0.00011036823669021
 129    0.00014532276386836
 130    0.00057228239908911
 131    -0.00024535053693026
 132    0.00025415764836023
 133    -0.00012216657895566
 134    -0.0004930726770886
 135    0.0032672968329896
 136     0.006382996872452
 137     0.018682009655245
 138    0.0024681956190922
 139    -0.0077068140930279
 140    0.0020924306238177
 141    -0.0011893585159869
 142    0.0046337520016465
 143     -0.00805829977141
 144    0.00035562308383925
 145    -0.0001366684883239
 146    -6.6047366415551e-05
 147    0.00068181579214044
 148    0.00029752322154434
 149    -0.0073340792893837
 150    -0.0041011153921429
 151    -0.00013720692367968
 152    -0.00036973730055723
 153    -7.2605912548705e-05
 154    0.0039715810253763
 155    -0.0049931075286867
 156    0.00034904355913051
 157    -0.00047027709013784
 158    0.00015327482486851
 159    0.0017501020381953
 160    2.6857375493751e-05
 161    -0.00034662923351032
 162     0.000280134170045
 163    -0.00012241342814977
 164    -0.00067471502800743
 165    -0.00092831666698532
 166    -0.006407206861686
 167    0.00031483314819539
 168    0.0023436009575086
 169    -4.4072689358842e-06
 170    -9.911939941387e-05
 171    -0.0048361744991985
 172    0.0018068919260535
 173    -2.5155956087934e-05
 174    -7.116668828106e-05
 175    -1.0149264919766e-05
 176    -0.00011575176644434
 177    0.00027934606505238
 178    0.00079245237471844
 179    0.00078460149426693
 180    -3.1038934313699e-06
 181    -0.0001349813208201
 182    -5.2641803237018e-05
 183    0.00097783150490206
 184    -0.0013269303218112
 185    -7.1036665195283e-05
 186    3.6061040971342e-05
 187    -2.5790270871419e-05
 188    -0.00045061227890962
 189    0.0054284458292151
 190    0.00045358851707437
 191    0.00019975630500672
 192    0.00014785321887281
 193    -2.2772814674135e-05
 194    -8.4082125525989e-05
 195    -6.612577425748e-06
 196    5.2099007375328e-06
 197    -7.8745757547625e-05
 198    0.00023065302629646
 199    -0.00017655930588303
 200    0.00024344084172091
 201    0.00039712351877612
 202    -4.1623628431681e-05
 203    -7.094239194222e-06
 204    -1.2701474474074e-05
 205    -3.2767217888778e-05
 206    -2.2304785934755e-05
 207    1.2966707614139e-05
 208    -0.00074230996360272
 209    3.6185995567923e-05
 210    -0.00010665185864613
 211    -3.615580903843e-05
 212    4.0252647635315e-05
 213    0.00029856096401345
 214    1.3219568489965e-05
 215    2.7505867768277e-05
 216    1.1280493865658e-06
 217    5.3319793787016e-05
 218    0.00091788911442008
 219    -5.0845196059273e-05
 220    6.9868663774684e-05
 221    3.8135346641658e-05
 222    -0.00067275584756438
 223    -0.0013468529014171
 224    -0.0034229990557364
 225    0.0010472725901465
 226    0.0023905444076372
 227    0.00097733414217329
 228    -0.0017517595815385
 229    -0.0089445254852362
 230    0.0022586400559673
 231    -0.00044088529063639
 232    0.0002370587511605
 233    0.00027794453076795
 234    -0.00096758422324262
 235    0.0002325749105994
 236     0.002055037232225
 237    -0.0036549321632442
 238    -3.635108786442e-06
 239    -0.00047177504841191
 240    -0.0003004021149302
 241    0.00058973451992068
 242    0.0016037947049225
 243    3.8669135938817e-06
 244    7.633046248373e-05
 245    0.00040308305675184
 246    -0.0024156306938477
 247    0.00085716664723902
 248    -0.00012428057546414
 249    0.0004424103088243
 250    -0.00033169677870351
 251    0.0041477039559366
 252     0.006219323193778
 253     0.035520859908041
 254    0.0058469270264957
 255    -0.018114665969826
 256    0.00025254173403912
 257    -0.00047705742176564
 258     0.023058043834805
 259    -0.007127832827742
 260     0.003215468674611
 261    -0.0011757977731885
 262    0.0009393866258597
 263    0.0014958704840841
 264    0.0012566898122772
 265     0.013864696229535
 266     0.007660508478414
 267    -0.00041855321788002
 268    -0.00032785466852662
 269    -0.0011311242737112
 270     -0.01944865558695
 271    -0.020015581732504
 272     0.001214802204233
 273    -0.0010871385645769
 274    0.0014547133144947
 275    -0.0012923082831018
 276    0.00023127272887916
 277    -0.00017288233884365
 278    0.00056112935686252
 279    0.00011260902237455
 280    0.00085067128247874
 281    0.00098147350955225
 282    0.0092056189534771
 283    0.0035831771086821
 284    -0.0012644583406578
 285    -0.0025817618068688
 286    -0.0037003366287354
 287    -0.0056572555364597
 288    0.0061872692806348
 289    -3.6987712001686e-05
 290    0.00052154138342309
 291    0.00038765225077943
 292    -0.0005792428530996
 293    -2.2198880989419e-05
 294    0.0029005829987839
 295    0.0039028034857114
 296    -0.00010732016837287
 297    0.00031551893422676
 298    -0.00065379071407697
 299    -0.00051805999205832
 300    -0.00044713280697571
 301    -0.00026233921981093
 302     0.000132196809709
 303    0.00032640145204145
 304    -0.004594095785261
 305    -0.008477095046268
 306    0.00089001583384602
 307    -0.00031875812039336
 308    0.00016841862219266
 309    -0.0042345739252411
 310    -0.0069133846022676
 311    -0.032559284737803
 312    -0.0073853327905879
 313    0.0047715810343239
 314     0.017541444335194
 315    0.0072026800950153
 316    0.0001536776135751
 317    -0.025183970724135
 318    0.0027045432120076
 319    -0.0015896176102099
 320    0.00097742379754545
 321    0.0024092340128929
 322    0.00087930338272224
 323    -0.016135198898519
 324    -0.0071071100600753
 325    -0.00018562606529658
 326    0.0012860947507162
 327    8.9151705163228e-05
 328    0.0063521769192028
 329     0.003290143836511
 330    0.0005955986667951
 331    -0.00025060030712821
 332    -2.9456846140745e-05
 333     0.015049175277407
 334     0.012058593384508
 335    -0.000957744145656
 336    -0.0010453493383167
 337    0.00040931454915989
 338    1.8718692132113e-06
 339    0.0001075120184181
 340    -0.00018750247555444
 341    -0.0028319273685511
 342     0.011797490397357
 343    -0.018040661535662
 344    0.0020783383026732
 345    -0.0091995356700979
 346     0.015014950015784
 347    0.0037080909339913
 348    -0.0021538008594942
 349    0.0010838524282177
 350     0.001167707372375
 351    0.0017937658947136
 352    -0.0035227035972747
 353    -0.0020157648154615
 354    0.00037242522588162
 355    -0.00016779302477319
 356    0.0008648458812402
 357     0.023848698052673
 358     0.011956848306061
 359    0.0012040989876086
 360    4.0938897347291e-05
 361    -0.0014283866573198
 362    -0.020534897330463
 363    -0.010626474945177
 364    -0.001669543039832
 365    0.00056140830984049
 366    -0.00018753702193888
 Sym= A
 Ene=               3
 Spin= Alpha
 Occup=    1.00000
   1    -1.424731121241e-07
   2    2.9348869503213e-07
   3    -2.2267965980268e-06
   4    -2.8441858255577e-05
   5    0.00018242182286865
   6    4.4925751541876e-07
   7    4.9021124876075e-06
   8    8.459095624353e-07
   9    -1.7439844913319e-06
  10    -1.6589344015916e-05
  11    -2.1346353501509e-06
  12    -5.663161668535e-07
  13    9.1249599338907e-05
  14    -2.2650213679508e-05
  15    -5.2082819545731e-06
  16    -2.1996635586397e-05
  17    6.095343879315e-05
  18    0.00010038966609595
  19    1.0951409049743e-05
  20    -0.00037969496002532
  21    0.00026109835755784
  22    0.00043640595821934
  23    0.00032872749511705
  24    0.00020330971416643
  25    6.9598560144487e-06
  26    -7.9027005299371e-06
  27    -1.0846170946501e-06
  28    5.041764047942e-06
  29    -2.693802198011e-06
  30    9.7943005134253e-06
  31    -4.3938661362603e-06
  32    3.8122552692133e-06
  33    -1.0830461677874e-05
  34    5.2746567997178e-05
  35    -8.9197479510871e-05
  36    -0.00022080980005254
  37    -5.8183761464378e-05
  38    -7.3696248491182e-05
  39    4.6059467031289e-05
  40    0.00018268070146187
  41    0.00023440050467603
  42    -0.00014664035140787
  43    3.1338173324152e-05
  44    -5.21656549687e-05
  45    8.4245615974638e-05
  46      -0.4301755541605
  47      0.27985808226898
  48      0.54374436407989
  49       0.4843332382774
  50      0.25820100933206
  51    -0.053434937635209
  52     0.034736382485948
  53     0.067658354559687
  54     0.060420006031966
  55     0.032067551042861
  56    0.00028159866081553
  57    -0.00023722639534147
  58    -9.0442082917833e-05
  59    0.00015886320841619
  60    -4.3398194522597e-05
  61    0.00030175871600254
  62    -0.00016794155714605
  63    -3.4993493030922e-05
  64    -8.1954273089454e-05
  65    -9.6230062167602e-05
  66    0.00060911155466241
  67    0.00047887004030968
  68    -0.00049113671184548
  69    2.0254694331082e-05
  70    -3.6689081382525e-05
  71    3.4915701455479e-05
  72    0.00068235223417541
  73    -0.00045518818263093
  74    -0.00085335830838698
  75    -0.0007623795099833
  76    -0.00041676336479128
  77    -7.3697766493887e-05
  78    0.00027436651317333
  79    -0.0014155011658877
  80    0.0003803577245518
  81    0.00052947937128977
  82    0.00042376074373187
  83    0.0010065327010138
  84    -0.0011271235858972
  85    -0.00086514085021808
  86    -2.0290458000915e-06
  87    -4.4895867146607e-05
  88    2.0567731694524e-05
  89    6.3244999737449e-05
  90    -2.3027207739758e-05
  91    -0.00010692298994874
  92    -0.00031608713244717
  93    2.1960836384715e-05
  94    -1.7710132904699e-05
  95    -9.2195059019762e-05
  96    -4.2974310764638e-05
  97    9.0121943635484e-06
  98    -0.00013011457356629
  99    7.9222767139481e-05
 100    3.5012816360253e-05
 101    1.7317100894378e-06
 102    0.00024110329314043
 103    2.0324270002236e-05
 104    -1.0798554740172e-05
 105    7.085001194813e-05
 106    6.5690427891277e-05
 107    -0.00020444193187674
 108    0.00088702441182894
 109    0.00025687011838479
 110    -0.0007019206688758
 111    0.00025682014369008
 112    -0.00051966747870567
 113    0.00085232194947557
 114    0.00098491330790307
 115    -4.9172645382362e-05
 116    5.9719353582142e-06
 117    -3.296947179908e-05
 118    2.135450137869e-06
 119    -2.4006231736287e-05
 120    0.00012342530198001
 121    0.00034629574798507
 122    -2.9077059463389e-05
 123    -9.0930288346201e-05
 124    0.00015412423573663
 125    0.00011756293701199
 126    0.0001113371112092
 127    5.5640738474216e-05
 128    6.2365863593971e-05
 129    1.7788302043278e-05
 130    3.6151142187808e-05
 131    -8.9081892417097e-05
 132    2.9393835076505e-05
 133    -4.2594248049126e-05
 134    -0.00012461535480298
 135    7.892684766462e-05
 136    -0.00026829501812067
 137     0.001476210284126
 138    0.00022669772048716
 139    7.8075662890137e-05
 140    -0.00074096417324758
 141    -0.00073865281998664
 142    0.0014072428247728
 143    0.00073660721015412
 144    2.4205913474855e-05
 145    -1.2387112270697e-05
 146    -5.9421590661488e-06
 147    7.793059817202e-05
 148    1.4465960789117e-05
 149    0.00010561453562816
 150    0.00026379374888775
 151    2.1268470523741e-05
 152    6.2517603716331e-05
 153    6.7900331659311e-05
 154    1.0557187534183e-06
 155    -0.00025167339002224
 156    -4.3951737066612e-05
 157    -1.8902354118905e-05
 158    -6.0321055824222e-05
 159    4.0270637196987e-05
 160    -3.2770297637318e-05
 161    7.3330285724658e-05
 162    -0.00013742948974383
 163    -3.3497389648841e-06
 164    -7.1351443784297e-05
 165    0.00022758715367979
 166    -0.0010622583537778
 167    -0.00076312845420394
 168    0.00012795865261761
 169    2.5444694950608e-05
 170    0.00042694157875897
 171    -0.0011436894643666
 172    -0.00099228634777754
 173    4.2582047284544e-05
 174    3.2452493337132e-06
 175    5.2430938241044e-05
 176    -1.2472345701741e-05
 177    2.676568237939e-05
 178    -4.4300250298235e-05
 179    9.1455663578432e-06
 180    1.084286283062e-05
 181    0.00011098339614721
 182    9.6064822183351e-05
 183    -0.00011256307318536
 184    -0.00023299438492243
 185    4.4498344815908e-05
 186    1.2403122525113e-05
 187    -8.0180571192446e-05
 188    -4.8823493824501e-05
 189    -0.00017347173204558
 190    -9.2397876518018e-05
 191    -5.6554627613907e-05
 192    -7.3680956226354e-06
 193    -1.4837523467597e-06
 194    -1.170395218401e-05
 195    3.8681327847766e-05
 196    -1.0454210532221e-05
 197    -5.4104503670925e-06
 198    9.4297911780958e-06
 199    2.1625555564052e-05
 200    3.5523533568658e-05
 201    -1.5355537634892e-05
 202    -2.6578297807799e-06
 203    1.5866565966705e-06
 204    3.5788141927387e-06
 205    3.4490800472286e-06
 206    1.6284342647129e-06
 207    -2.7603174825046e-05
 208    2.7398978246505e-05
 209    3.1153436360942e-06
 210    -8.155564669949e-06
 211    3.3664274285158e-06
 212    2.3569086289485e-05
 213    -5.7083408392063e-05
 214    -8.5219605875377e-06
 215    5.4890140255554e-08
 216    -2.2561138933822e-06
 217    1.7578609916819e-06
 218    -2.3279186837392e-05
 219    4.9374154054243e-06
 220    3.4372349003618e-06
 221    -1.806929249373e-06
 222    -0.032640005568748
 223    -0.088077831172743
 224    -0.064527782018389
 225      0.11830297794851
 226      0.04834048731166
 227     0.040005289575453
 228    -0.056700786679666
 229    -0.027123848701623
 230    -0.019847169457346
 231    -0.0017621874540937
 232    0.0025238249201632
 233    0.00033849161914445
 234    0.0031013798725186
 235    0.0027894136631996
 236    0.0078261150889317
 237     0.013659907273296
 238    -0.0068415402033476
 239    -0.0019961451578905
 240    -0.0017681511205758
 241     0.013383476564753
 242     0.013093152805819
 243    -0.0056891098188021
 244    -0.0025253531461269
 245    -0.00068787648890229
 246      0.01295152598432
 247     0.011505855439568
 248    -0.0051405428237887
 249    -0.0031581095217153
 250    -0.0031814971859799
 251     0.032476826851466
 252     0.087547935071266
 253     0.064369182934208
 254    -0.0022546931400038
 255    -0.083506977186776
 256      0.10469374888404
 257    -0.0016868831315361
 258     0.043644777646591
 259    -0.050003759002595
 260    -0.0022561414984084
 261    0.0001017454908836
 262    0.0044185037613084
 263    0.0012585024013152
 264    -0.00062278852357574
 265    -0.013538602509586
 266    -0.011616192733335
 267    9.3541703906506e-05
 268     0.005253260612947
 269    -0.0040559148416629
 270    -0.0071184981131768
 271    -0.013764354307118
 272    0.00046379387174416
 273    0.0040530085955946
 274    -0.0063091322627875
 275    -0.013213535306918
 276    -0.012178679978497
 277    -0.00073775035904145
 278    0.0032521151389945
 279    -0.005268724715021
 280     -0.03247498142255
 281    -0.087541368679684
 282    -0.064398925085595
 283     -0.12053789260951
 284    -0.042254513590708
 285    -0.040116225537612
 286     0.061184588192198
 287      0.01738870829359
 288     0.018714098312522
 289    -0.0016867379202633
 290    0.0025548498352316
 291    0.00047114278304845
 292    0.0028383282959684
 293    0.0029884218743857
 294     0.013508367927238
 295     0.011618008128704
 296    0.0064789806328099
 297    0.0014051097731314
 298    0.00063253879274132
 299     0.013162240961747
 300     0.012378733239296
 301    0.0053340573626473
 302    0.0015116850909826
 303    0.0028592350293714
 304    0.0072297082969193
 305     0.013732045942791
 306    0.0063246174140852
 307    0.0029332372660264
 308     0.002711201468217
 309      0.03269647699196
 310      0.08825210738707
 311      0.06458984007938
 312    0.0070882178225146
 313     0.080997985852697
 314     -0.10645869961907
 315    -0.0058652511151939
 316    -0.038352267615196
 317     0.053283889085949
 318    -0.0020668913522492
 319    -9.9354169847664e-05
 320    0.0045448642174796
 321    0.0014043178893828
 322    -0.00051411533498213
 323    -0.012958830315324
 324    -0.011247262091847
 325    -0.0007793717377833
 326    -0.0027673961720685
 327     0.006259566253719
 328     -0.01248530339166
 329    -0.013317426542381
 330    -0.00084244614819011
 331    -0.0046002163580634
 332    0.0043823515485181
 333    -0.0088481132239388
 334    -0.013513571148851
 335    0.00020241066371329
 336    -0.0048613698568842
 337    0.0052172148079874
 338    -5.2162065154689e-06
 339    -2.1237386621826e-05
 340    -1.4811150853047e-06
 341    -0.00017385950198574
 342    -0.00029894938866645
 343    0.00014586837610765
 344    0.0010969705198203
 345    0.0014068015433766
 346    -0.00095534425708179
 347    0.00061147873469009
 348    -0.00040317181175893
 349    -0.00076496095623113
 350    -0.00067450177814028
 351    -0.00036752268265978
 352    -0.0013847646565419
 353    -0.00059395714170711
 354    -0.00078010468493473
 355    0.00060052267210759
 356    7.1062654690695e-05
 357    0.0015868384420041
 358    0.00075194859745715
 359    0.00057433503870863
 360    -0.00087102270403808
 361    -7.7020363973702e-05
 362    -0.00019189436509286
 363    -8.1709818805648e-05
 364    0.00043143586107007
 365    0.00057539613643877
 366    -0.00017677460551036
 Sym= A
 Ene=               4
 Spin= Alpha
 Occup=    1.00000
   1    -0.00021075042692253
   2    0.00090694926785711
   3    -0.001217588579323
   4    -0.0026535662460107
   5    0.0051144666866606
   6    -0.0018034715493332
   7     0.002848954753333
   8    0.0021075862780829
   9    0.0052384001524273
  10     -0.00827864516957
  11    -0.0061271148685294
  12    -0.0066840780900529
  13     0.010719054581663
  14    0.0080891682958414
  15    -0.0021820777412078
  16     -0.01138040105632
  17     0.017931582660798
  18    -0.0072845769228182
  19    -0.015324571052441
  20    -0.0021636344995328
  21    -0.011657090940092
  22     0.018387368933336
  23    -0.0074310453520195
  24    -0.015689171703565
  25    -0.0017903489989417
  26    -0.00047502308239101
  27    0.00075263484390964
  28    -0.0013352945190772
  29    -0.0028261667168155
  30    0.0020252210625127
  31    0.00024974719941306
  32    1.6032777083198e-06
  33    -0.00061391602017274
  34    -0.003331510401073
  35     0.010313787723168
  36    -0.0036525994161099
  37    -0.0022100015030179
  38    0.0034957577722959
  39     0.002608242534667
  40    0.0058258201782214
  41    -0.0092244579470353
  42    -0.0069082402714989
  43    -0.0043879785995689
  44    0.0071234783800633
  45    0.0058096074402872
  46    -0.071012733338722
  47     -0.37788461877764
  48      0.59562782845032
  49      -0.2416157860163
  50     -0.50985503588723
  51    -0.0068199247799642
  52    -0.036487900045517
  53     0.057480234748009
  54    -0.023294932586028
  55    -0.049095239319223
  56    -0.0022609854853872
  57    -0.00061155547442904
  58    0.00092680101138045
  59    -0.0016919749109424
  60    -0.0035463056102047
  61    0.0025550106817537
  62     0.000334689666609
  63    -0.046389849976694
  64     -0.12637018564382
  65    -0.059202646423728
  66      0.14811061734035
  67     -0.23349521851466
  68     -0.17211942263882
  69    0.0011521506455861
  70    -0.001726100296662
  71    -0.0010804747449522
  72    -0.0018795825295837
  73    -0.0099271731762542
  74     0.015667543095683
  75    -0.0063396450569981
  76    -0.013416713848696
  77    0.0013624597961718
  78    0.0041032327317443
  79    0.0034696428504502
  80    0.0043633917978725
  81    0.0022316086787996
  82    0.0018580989278319
  83    -0.0025472939272519
  84    -0.0018475550845459
  85    -0.0018096536196336
  86    0.00015484603131923
  87    0.00023168705867376
  88    -5.7656969990946e-05
  89    -0.00021063180461636
  90    0.0003148735859609
  91    -0.00072157426442257
  92    -0.00034341445110921
  93    -0.00037441357444769
  94    -5.3465640640515e-05
  95    -0.00013275663629172
  96    -2.5497028417228e-05
  97    0.00021996396795908
  98    -0.00049636112780786
  99    -0.00015915673077804
 100    -6.3159256171173e-05
 101    -0.00025147741293776
 102    1.1368048097129e-05
 103    -0.00013315005372801
 104    -9.8081376297579e-05
 105    -0.00018769564417784
 106    0.0013383013521182
 107    0.0039724980378903
 108    0.0037100610196389
 109    -8.8533475848597e-05
 110    0.0036755974886826
 111    -0.0038027202658785
 112    -0.0001290516443145
 113    -0.002866970072074
 114    0.0022694895294328
 115    -0.00028340270497104
 116    0.00025607809027452
 117    -0.00022282495307291
 118    -7.2951743645769e-05
 119    7.6876451714535e-05
 120    -0.00054862320941279
 121    -0.00028144800646173
 122    -1.0911357683165e-05
 123    -0.00017365398084317
 124    -9.1500215615281e-05
 125    -0.000594198353389
 126    -0.0001436875212511
 127    -0.00013646424803456
 128    -0.00023942936296461
 129    0.00036603570814285
 130    -8.6604547763817e-05
 131    0.00023927446942065
 132    -9.7374705170107e-07
 133    -0.00023672176481458
 134    0.00053647165613418
 135    0.0013647992517042
 136    0.0041069703474882
 137    0.0034739432722048
 138    -0.00049979972339877
 139    -0.0027659580428567
 140    0.0044172910060376
 141    0.00042482231069752
 142    0.0012185652354491
 143    -0.0034006201889526
 144    0.00027654373781939
 145    -1.3802533446679e-05
 146    -5.0132454289327e-05
 147    0.00028286290944137
 148    0.00025586557696505
 149    -0.00072946295798027
 150    -0.00034330020564993
 151    -6.4981947042047e-05
 152    0.00026257196444521
 153    -0.00029402061134685
 154    -0.0002519940122463
 155    6.2198110144818e-06
 156    -1.908633757301e-05
 157    2.6117681165043e-05
 158    -0.00024864466452939
 159    -1.1373494491815e-05
 160    0.00025280478468364
 161    3.9416025379171e-05
 162    0.00039217271611914
 163    -0.00035052440624218
 164    0.0013421040064801
 165    0.0040131926913411
 166    0.0035734759405287
 167    -0.0049609100968067
 168    -0.0012993438019671
 169    -0.0012407816821505
 170    0.0036609139320942
 171    0.00069192470328678
 172    0.00025473052677653
 173    -6.6508225847243e-05
 174    -4.2915566313213e-05
 175    -0.00035602879624709
 176    0.00028188128937542
 177    -4.5615868608614e-05
 178    -2.9153518249144e-05
 179    0.00027865899062594
 180    0.00044592108462807
 181    0.00021340166498877
 182    0.00027399198054489
 183    -0.00066991121354159
 184    -0.00027338976238046
 185    0.00033484364339632
 186    0.00023331052888509
 187    0.00010072481304615
 188    -0.00041145746765786
 189    -8.1218505062461e-06
 190    0.00018025074047749
 191    9.251734451575e-07
 192    -0.00011390088870572
 193    -0.0029606825967648
 194    -0.0091062852767778
 195    -0.0039100113828978
 196    -0.0061928349877542
 197    0.0096905534543367
 198    0.0071148846378089
 199    0.0031529901974364
 200    -0.0049334271835397
 201    -0.0036450384596655
 202     3.54256272544e-05
 203    0.00018630349150417
 204    -0.00029638076697825
 205    0.00011952467262422
 206    0.00025402275102493
 207    0.0011403132835721
 208    0.00051569489878982
 209    0.00026530593391749
 210    -0.00045973897925415
 211    -0.00027462740489415
 212     0.001156064447985
 213    0.00053480828322794
 214    0.0003181135592256
 215    -0.0003987147194416
 216    -0.00030288716388831
 217    0.0011035009463115
 218    0.00059868374410659
 219    0.00024756090098995
 220    -0.00042087369421594
 221    -0.00034234702207968
 222     0.017313960365431
 223     0.046097489966473
 224      0.03267113287614
 225    -0.064199600006531
 226     -0.02550706733052
 227    -0.021215516314447
 228     0.030492615288017
 229     0.012524069228909
 230     0.010561579152394
 231    0.0012149343707894
 232    -0.0015100418419399
 233    -0.0014319998007209
 234    -0.0013793262734983
 235    -0.0016805044728085
 236    -0.0055048800495501
 237    -0.0080220511166419
 238    0.0036106829919922
 239    0.0010431566860877
 240    0.0017998303236048
 241    -0.0061108814122429
 242    -0.0065969616233967
 243    0.0036451557257838
 244     0.002185153744196
 245    0.0003824267301465
 246    -0.0074432757414662
 247    -0.0065069562060742
 248    0.0019539018477951
 249    0.00093909443596659
 250    0.0014352242460436
 251     0.017320059987641
 252     0.046115268926146
 253     0.032545564772174
 254    -0.0016743561322529
 255     -0.04465056671076
 256     0.057214618252145
 257    0.0010689051113516
 258     0.021721000391655
 259    -0.027126054816532
 260    -0.00098640872199316
 261    0.00028306403169554
 262    0.0025277681915645
 263    0.0016191824614624
 264    0.00058657891688223
 265    -0.0074416439976047
 266    -0.0065496046120584
 267    0.00045290463553509
 268    0.0022565520735464
 269    -0.0016160645130163
 270    -0.0056879718750906
 271    -0.0083378179458264
 272    0.00063161740869067
 273     0.002690891562737
 274    -0.0029741962870005
 275    -0.0058362678042094
 276    -0.0066073255580259
 277    -0.00095556326234183
 278    0.0022342581756901
 279    -0.0034943078676254
 280     0.017359942742804
 281     0.046220997122477
 282     0.032642081673696
 283     0.065105029759035
 284     0.023616830077836
 285     0.022210294431868
 286    -0.031350195952635
 287    -0.011293449431564
 288    -0.010159723622355
 289    0.0015495259062521
 290    -0.0011052633237985
 291    -0.00093230896401099
 292    -0.002237561518119
 293    -0.00097084795504094
 294    -0.0074911448417641
 295    -0.0065034359266161
 296    -0.0026308974002212
 297    -0.00089288630288213
 298    8.1108549665554e-06
 299    -0.0058650221501243
 300    -0.0067127823779959
 301    -0.0036971867820749
 302    -0.00056750672324428
 303    -0.0020743795239322
 304    -0.0056516735268802
 305    -0.0082841943582375
 306    -0.0036584486216809
 307    -0.0016868123569639
 308    -0.00072257628434027
 309     0.017272551820398
 310     0.046006239334332
 311     0.032460727736631
 312    0.0034377513570351
 313     0.044061977424714
 314    -0.056856647911702
 315    -0.0018327762265675
 316     -0.02053079684785
 317     0.027709405030061
 318    -0.0019277208622328
 319    0.00080144508673539
 320    0.0022419898067641
 321    0.0010236204382628
 322    0.00017802392273136
 323    -0.0076204032815692
 324    -0.0065359041292448
 325    -5.9567181607977e-05
 326    -0.00089671059699922
 327    0.0022768083657382
 328    -0.0058673651401792
 329    -0.0066319127041053
 330    -0.0011533006078912
 331    -0.0028673150297165
 332    0.0030295215172229
 333    -0.0055261775910518
 334    -0.0075713322438343
 335    0.00049478524919678
 336    -0.002250979986787
 337    0.0035506285196159
 338     -0.03515968956007
 339        -0.09242084955
 340    -0.073224016388737
 341     0.065112310061204
 342     -0.10221371770435
 343    -0.074926232676679
 344    -0.033244353976614
 345     0.051887920396024
 346     0.037604690022388
 347    -0.00053964635779754
 348    -0.0027743062547187
 349    0.0043640446283932
 350    -0.0017673393798974
 351    -0.0037424701227799
 352      0.01405408680401
 353     0.012489203780797
 354    -0.004458038435157
 355     0.004074847759181
 356    0.0035235864441978
 357     0.014083527139689
 358     0.012491736420298
 359    -0.0027528794977597
 360     0.005941840738371
 361    0.0024582321998821
 362     0.013205103852131
 363     0.012387714007403
 364    -0.0022481116512538
 365      0.00474500190864
 366    0.0047284119918291
