[Molden Format]
made by pyscf v[2.11.0]
[Atoms] (AU)
Cr   1   24     1.56143912275337    -2.46507591990239    -1.82404491365355
Cr   2   24    -1.56139565905251     2.46513072196000     1.82399011159594
O   3   8     0.00002078698737     0.00002834589187    -0.00002645616574
N   4   7     5.12832174930954    -1.10581670549011    -0.60767356069801
H   5   1     6.65216855026694    -1.66292686427314    -1.66487895135981
H   6   1     5.63710405218294    -1.59213394419468     1.18765885421890
H   7   1     5.20084187906585     0.81566059741989    -0.65509245834172
N   8   7     1.71230729763415    -0.02251608677419    -4.99594076510539
H   9   1     0.29795878723855     1.27247165241550    -4.90823668593820
H   10   1     1.50271021425414    -0.85583806455427    -6.73026148236459
H   11   1     3.34039895052705     0.99863710888315    -5.18656310846864
N   12   7     1.41057094787259    -4.90763575303059     1.34785282752440
H   13   1     1.64193389675534    -6.79355407945465     0.97314659318890
H   14   1    -0.29048681014202    -4.81040367474334     2.24006056107205
H   15   1     2.72468082571676    -4.56691435331926     2.71738081369757
N   16   7    -2.00544350380280    -3.82433513431467    -3.04041437688297
H   17   1    -2.87205678671934    -5.05516478184926    -1.83221042023780
H   18   1    -2.03637832046193    -4.76397121413665    -4.73247136936628
H   19   1    -3.24475802163669    -2.37551046050250    -3.28123540501917
N   20   7     3.37923471211299    -5.33493873459111    -3.94755661599306
H   21   1     4.17102617885350    -4.76109883042731    -5.61685374703210
H   22   1     2.26176595533881    -6.82326057413281    -4.47610923358166
H   23   1     4.85383336053810    -6.19899521806112    -3.03922195969837
N   24   7    -5.12827828560868     1.10587339727385     0.60762064836653
H   25   1    -5.15408816501799    -0.81544705836782     0.54662784797006
H   26   1    -5.69743166898356     1.68113626520945    -1.14337690194197
H   27   1    -6.63528195761783     1.56841410187914     1.73267665553083
N   28   7    -1.71226383393328     0.02257088883181     4.99588785277390
H   29   1    -1.62991523860311     0.86667375415253     6.73575491620870
H   30   1    -0.22416876152653    -1.19157625647512     4.98456461383551
H   31   1    -3.28782110056328    -1.08746368536834     5.11339858210385
N   32   7     2.00548696750367     3.82438993637228     3.04035957482536
H   33   1     2.05186651577887     4.68410571893416     4.77402266739321
H   34   1     2.83712330958063     5.12208376337235     1.87805706574587
H   35   1     3.26582090902109     2.38241174030942     3.19051154350492
N   36   7    -1.41052748417173     4.90769055508820    -1.34790762958202
H   37   1    -1.75003190025884     6.78104976168840    -0.99229329828299
H   38   1    -2.65834387984003     4.49309409198925    -2.75785496783350
H   39   1     0.32278033988471     4.89894112313146    -2.18344058692784
N   40   7    -3.37919124841212     5.33499353664873     3.94750181393545
H   41   1    -2.26357064378777     6.83195331430581     4.45515784003860
H   42   1    -4.15358022727151     4.76963661305810     5.62761006813313
H   43   1    -4.86681766873998     6.18449345978121     3.04686590187224
[GTO]
1 0
 s    6 1.00
          51528.086349  0.0017695545768669
          7737.2103487   0.013556436258096
           1760.374847   0.067162645785071
          496.87706544    0.23295905918518
          161.46520598    0.47040576982722
          55.466352268    0.35733072606876
 s    3 1.00
          107.54732999   -0.10605255446629
          12.408671897    0.62543981484169
          5.0423628826    0.44878820793655
 s    3 1.00
          8.5461640165   -0.21819012081133
          1.3900441221    0.70422525667731
         0.56066602876    0.42488555412558
 s    1 1.00
        0.071483705972                   1
 s    1 1.00
        0.028250687604                   1
 p    5 1.00
          640.48536096  0.0093555063746755
          150.69711194   0.068993338492216
          47.503755296     0.2634118959318
          16.934120165    0.51034501651775
           6.240968059    0.33195512953954
 p    3 1.00
          3.0885463206    0.32917682676976
          1.1791047769    0.55491385190365
         0.43369774432    0.23818412855984
 p    1 1.00
              0.120675                   1
 d    4 1.00
          27.559479426   0.036950140313562
          7.4687020327    0.18821519783039
          2.4345903574    0.44641244239929
         0.78244754808     0.5681617303244
 d    1 1.00
         0.21995774311                   1
 f    1 1.00
                 1.147                   1

2 0
 s    6 1.00
          51528.086349  0.0017695545768669
          7737.2103487   0.013556436258096
           1760.374847   0.067162645785071
          496.87706544    0.23295905918518
          161.46520598    0.47040576982722
          55.466352268    0.35733072606876
 s    3 1.00
          107.54732999   -0.10605255446629
          12.408671897    0.62543981484169
          5.0423628826    0.44878820793655
 s    3 1.00
          8.5461640165   -0.21819012081133
          1.3900441221    0.70422525667731
         0.56066602876    0.42488555412558
 s    1 1.00
        0.071483705972                   1
 s    1 1.00
        0.028250687604                   1
 p    5 1.00
          640.48536096  0.0093555063746755
          150.69711194   0.068993338492216
          47.503755296     0.2634118959318
          16.934120165    0.51034501651775
           6.240968059    0.33195512953954
 p    3 1.00
          3.0885463206    0.32917682676976
          1.1791047769    0.55491385190365
         0.43369774432    0.23818412855984
 p    1 1.00
              0.120675                   1
 d    4 1.00
          27.559479426   0.036950140313562
          7.4687020327    0.18821519783039
          2.4345903574    0.44641244239929
         0.78244754808     0.5681617303244
 d    1 1.00
         0.21995774311                   1
 f    1 1.00
                 1.147                   1

3 0
 s    5 1.00
          2266.1767785  -0.0053893503921743
          340.87010191   -0.04023472138896
          77.363135167   -0.18008184205526
           21.47964494   -0.46828857657651
          6.6589433124   -0.44692617160187
 s    1 1.00
         0.80975975668                   1
 s    1 1.00
         0.25530772234                   1
 p    3 1.00
          17.721504317   0.062630248763161
           3.863550544    0.33331138482352
          1.0480920883    0.74148638308122
 p    1 1.00
         0.27641544411                   1
 d    1 1.00
                   1.2                   1

4 0
 s    5 1.00
          1712.8415853  -0.0054477995804909
          257.64812677  -0.040627174632423
          58.458245853   -0.18111962250584
          16.198367905   -0.46843975563173
          5.0052600809   -0.44616846289231
 s    1 1.00
         0.58731856571                   1
 s    1 1.00
         0.18764592253                   1
 p    3 1.00
          13.571470233  -0.058848116969522
          2.9257372874   -0.32024624762471
         0.79927750754   -0.75328226520436
 p    1 1.00
         0.21954348034                   1
 d    1 1.00
                     1                   1

5 0
 s    3 1.00
             13.010701   0.033485484812989
             1.9622572    0.23472187088125
            0.44453796    0.81377028525955
 s    1 1.00
            0.12194962                   1
 p    1 1.00
                   0.8                   1

6 0
 s    3 1.00
             13.010701   0.033485484812989
             1.9622572    0.23472187088125
            0.44453796    0.81377028525955
 s    1 1.00
            0.12194962                   1
 p    1 1.00
                   0.8                   1

7 0
 s    3 1.00
             13.010701   0.033485484812989
             1.9622572    0.23472187088125
            0.44453796    0.81377028525955
 s    1 1.00
            0.12194962                   1
 p    1 1.00
                   0.8                   1

8 0
 s    5 1.00
          1712.8415853  -0.0054477995804909
          257.64812677  -0.040627174632423
          58.458245853   -0.18111962250584
          16.198367905   -0.46843975563173
          5.0052600809   -0.44616846289231
 s    1 1.00
         0.58731856571                   1
 s    1 1.00
         0.18764592253                   1
 p    3 1.00
          13.571470233  -0.058848116969522
          2.9257372874   -0.32024624762471
         0.79927750754   -0.75328226520436
 p    1 1.00
         0.21954348034                   1
 d    1 1.00
                     1                   1

9 0
 s    3 1.00
             13.010701   0.033485484812989
             1.9622572    0.23472187088125
            0.44453796    0.81377028525955
 s    1 1.00
            0.12194962                   1
 p    1 1.00
                   0.8                   1

10 0
 s    3 1.00
             13.010701   0.033485484812989
             1.9622572    0.23472187088125
            0.44453796    0.81377028525955
 s    1 1.00
            0.12194962                   1
 p    1 1.00
                   0.8                   1

11 0
 s    3 1.00
             13.010701   0.033485484812989
             1.9622572    0.23472187088125
            0.44453796    0.81377028525955
 s    1 1.00
            0.12194962                   1
 p    1 1.00
                   0.8                   1

12 0
 s    5 1.00
          1712.8415853  -0.0054477995804909
          257.64812677  -0.040627174632423
          58.458245853   -0.18111962250584
          16.198367905   -0.46843975563173
          5.0052600809   -0.44616846289231
 s    1 1.00
         0.58731856571                   1
 s    1 1.00
         0.18764592253                   1
 p    3 1.00
          13.571470233  -0.058848116969522
          2.9257372874   -0.32024624762471
         0.79927750754   -0.75328226520436
 p    1 1.00
         0.21954348034                   1
 d    1 1.00
                     1                   1

13 0
 s    3 1.00
             13.010701   0.033485484812989
             1.9622572    0.23472187088125
            0.44453796    0.81377028525955
 s    1 1.00
            0.12194962                   1
 p    1 1.00
                   0.8                   1

14 0
 s    3 1.00
             13.010701   0.033485484812989
             1.9622572    0.23472187088125
            0.44453796    0.81377028525955
 s    1 1.00
            0.12194962                   1
 p    1 1.00
                   0.8                   1

15 0
 s    3 1.00
             13.010701   0.033485484812989
             1.9622572    0.23472187088125
            0.44453796    0.81377028525955
 s    1 1.00
            0.12194962                   1
 p    1 1.00
                   0.8                   1

16 0
 s    5 1.00
          1712.8415853  -0.0054477995804909
          257.64812677  -0.040627174632423
          58.458245853   -0.18111962250584
          16.198367905   -0.46843975563173
          5.0052600809   -0.44616846289231
 s    1 1.00
         0.58731856571                   1
 s    1 1.00
         0.18764592253                   1
 p    3 1.00
          13.571470233  -0.058848116969522
          2.9257372874   -0.32024624762471
         0.79927750754   -0.75328226520436
 p    1 1.00
         0.21954348034                   1
 d    1 1.00
                     1                   1

17 0
 s    3 1.00
             13.010701   0.033485484812989
             1.9622572    0.23472187088125
            0.44453796    0.81377028525955
 s    1 1.00
            0.12194962                   1
 p    1 1.00
                   0.8                   1

18 0
 s    3 1.00
             13.010701   0.033485484812989
             1.9622572    0.23472187088125
            0.44453796    0.81377028525955
 s    1 1.00
            0.12194962                   1
 p    1 1.00
                   0.8                   1

19 0
 s    3 1.00
             13.010701   0.033485484812989
             1.9622572    0.23472187088125
            0.44453796    0.81377028525955
 s    1 1.00
            0.12194962                   1
 p    1 1.00
                   0.8                   1

20 0
 s    5 1.00
          1712.8415853  -0.0054477995804909
          257.64812677  -0.040627174632423
          58.458245853   -0.18111962250584
          16.198367905   -0.46843975563173
          5.0052600809   -0.44616846289231
 s    1 1.00
         0.58731856571                   1
 s    1 1.00
         0.18764592253                   1
 p    3 1.00
          13.571470233  -0.058848116969522
          2.9257372874   -0.32024624762471
         0.79927750754   -0.75328226520436
 p    1 1.00
         0.21954348034                   1
 d    1 1.00
                     1                   1

21 0
 s    3 1.00
             13.010701   0.033485484812989
             1.9622572    0.23472187088125
            0.44453796    0.81377028525955
 s    1 1.00
            0.12194962                   1
 p    1 1.00
                   0.8                   1

22 0
 s    3 1.00
             13.010701   0.033485484812989
             1.9622572    0.23472187088125
            0.44453796    0.81377028525955
 s    1 1.00
            0.12194962                   1
 p    1 1.00
                   0.8                   1

23 0
 s    3 1.00
             13.010701   0.033485484812989
             1.9622572    0.23472187088125
            0.44453796    0.81377028525955
 s    1 1.00
            0.12194962                   1
 p    1 1.00
                   0.8                   1

24 0
 s    5 1.00
          1712.8415853  -0.0054477995804909
          257.64812677  -0.040627174632423
          58.458245853   -0.18111962250584
          16.198367905   -0.46843975563173
          5.0052600809   -0.44616846289231
 s    1 1.00
         0.58731856571                   1
 s    1 1.00
         0.18764592253                   1
 p    3 1.00
          13.571470233  -0.058848116969522
          2.9257372874   -0.32024624762471
         0.79927750754   -0.75328226520436
 p    1 1.00
         0.21954348034                   1
 d    1 1.00
                     1                   1

25 0
 s    3 1.00
             13.010701   0.033485484812989
             1.9622572    0.23472187088125
            0.44453796    0.81377028525955
 s    1 1.00
            0.12194962                   1
 p    1 1.00
                   0.8                   1

26 0
 s    3 1.00
             13.010701   0.033485484812989
             1.9622572    0.23472187088125
            0.44453796    0.81377028525955
 s    1 1.00
            0.12194962                   1
 p    1 1.00
                   0.8                   1

27 0
 s    3 1.00
             13.010701   0.033485484812989
             1.9622572    0.23472187088125
            0.44453796    0.81377028525955
 s    1 1.00
            0.12194962                   1
 p    1 1.00
                   0.8                   1

28 0
 s    5 1.00
          1712.8415853  -0.0054477995804909
          257.64812677  -0.040627174632423
          58.458245853   -0.18111962250584
          16.198367905   -0.46843975563173
          5.0052600809   -0.44616846289231
 s    1 1.00
         0.58731856571                   1
 s    1 1.00
         0.18764592253                   1
 p    3 1.00
          13.571470233  -0.058848116969522
          2.9257372874   -0.32024624762471
         0.79927750754   -0.75328226520436
 p    1 1.00
         0.21954348034                   1
 d    1 1.00
                     1                   1

29 0
 s    3 1.00
             13.010701   0.033485484812989
             1.9622572    0.23472187088125
            0.44453796    0.81377028525955
 s    1 1.00
            0.12194962                   1
 p    1 1.00
                   0.8                   1

30 0
 s    3 1.00
             13.010701   0.033485484812989
             1.9622572    0.23472187088125
            0.44453796    0.81377028525955
 s    1 1.00
            0.12194962                   1
 p    1 1.00
                   0.8                   1

31 0
 s    3 1.00
             13.010701   0.033485484812989
             1.9622572    0.23472187088125
            0.44453796    0.81377028525955
 s    1 1.00
            0.12194962                   1
 p    1 1.00
                   0.8                   1

32 0
 s    5 1.00
          1712.8415853  -0.0054477995804909
          257.64812677  -0.040627174632423
          58.458245853   -0.18111962250584
          16.198367905   -0.46843975563173
          5.0052600809   -0.44616846289231
 s    1 1.00
         0.58731856571                   1
 s    1 1.00
         0.18764592253                   1
 p    3 1.00
          13.571470233  -0.058848116969522
          2.9257372874   -0.32024624762471
         0.79927750754   -0.75328226520436
 p    1 1.00
         0.21954348034                   1
 d    1 1.00
                     1                   1

33 0
 s    3 1.00
             13.010701   0.033485484812989
             1.9622572    0.23472187088125
            0.44453796    0.81377028525955
 s    1 1.00
            0.12194962                   1
 p    1 1.00
                   0.8                   1

34 0
 s    3 1.00
             13.010701   0.033485484812989
             1.9622572    0.23472187088125
            0.44453796    0.81377028525955
 s    1 1.00
            0.12194962                   1
 p    1 1.00
                   0.8                   1

35 0
 s    3 1.00
             13.010701   0.033485484812989
             1.9622572    0.23472187088125
            0.44453796    0.81377028525955
 s    1 1.00
            0.12194962                   1
 p    1 1.00
                   0.8                   1

36 0
 s    5 1.00
          1712.8415853  -0.0054477995804909
          257.64812677  -0.040627174632423
          58.458245853   -0.18111962250584
          16.198367905   -0.46843975563173
          5.0052600809   -0.44616846289231
 s    1 1.00
         0.58731856571                   1
 s    1 1.00
         0.18764592253                   1
 p    3 1.00
          13.571470233  -0.058848116969522
          2.9257372874   -0.32024624762471
         0.79927750754   -0.75328226520436
 p    1 1.00
         0.21954348034                   1
 d    1 1.00
                     1                   1

37 0
 s    3 1.00
             13.010701   0.033485484812989
             1.9622572    0.23472187088125
            0.44453796    0.81377028525955
 s    1 1.00
            0.12194962                   1
 p    1 1.00
                   0.8                   1

38 0
 s    3 1.00
             13.010701   0.033485484812989
             1.9622572    0.23472187088125
            0.44453796    0.81377028525955
 s    1 1.00
            0.12194962                   1
 p    1 1.00
                   0.8                   1

39 0
 s    3 1.00
             13.010701   0.033485484812989
             1.9622572    0.23472187088125
            0.44453796    0.81377028525955
 s    1 1.00
            0.12194962                   1
 p    1 1.00
                   0.8                   1

40 0
 s    5 1.00
          1712.8415853  -0.0054477995804909
          257.64812677  -0.040627174632423
          58.458245853   -0.18111962250584
          16.198367905   -0.46843975563173
          5.0052600809   -0.44616846289231
 s    1 1.00
         0.58731856571                   1
 s    1 1.00
         0.18764592253                   1
 p    3 1.00
          13.571470233  -0.058848116969522
          2.9257372874   -0.32024624762471
         0.79927750754   -0.75328226520436
 p    1 1.00
         0.21954348034                   1
 d    1 1.00
                     1                   1

41 0
 s    3 1.00
             13.010701   0.033485484812989
             1.9622572    0.23472187088125
            0.44453796    0.81377028525955
 s    1 1.00
            0.12194962                   1
 p    1 1.00
                   0.8                   1

42 0
 s    3 1.00
             13.010701   0.033485484812989
             1.9622572    0.23472187088125
            0.44453796    0.81377028525955
 s    1 1.00
            0.12194962                   1
 p    1 1.00
                   0.8                   1

43 0
 s    3 1.00
             13.010701   0.033485484812989
             1.9622572    0.23472187088125
            0.44453796    0.81377028525955
 s    1 1.00
            0.12194962                   1
 p    1 1.00
                   0.8                   1

[5d]
[7f]
[9g]

[MO]
 Sym= A
 Ene=               0
 Spin= Alpha
 Occup=    1.00000
   1    -3.8436687743416e-06
   2    7.9603655512598e-06
   3    -6.6489678334359e-05
   4    -0.00027167885465656
   5    0.0016475877145106
   6     0.004780761512373
   7    0.0043958925659235
   8    -0.0018396629696188
   9    -0.016804690684487
  10    -0.015457250265223
  11     0.006470398160329
  12     0.060227428659329
  13     0.055534735699402
  14    -0.023241501333705
  15    -0.024046832519634
  16     0.047844067850611
  17     0.014499235884572
  18    -0.075431019854613
  19     0.020357786878081
  20    -0.014878271919624
  21     0.029267387646147
  22    0.0090448759909173
  23    -0.045656303452224
  24     0.012452530372314
  25    -0.00026505938719701
  26    0.0016707969099399
  27    -0.0015188475210631
  28    -0.0043195240292274
  29     0.001980826748615
  30    0.0012102110698251
  31    -0.004450234924324
  32    3.1319060536795e-06
  33    -6.0716120187446e-06
  34    5.6446586849203e-05
  35    -5.1645725343992e-05
  36    -0.0008253129201803
  37    0.0047798551801387
  38    0.0043978980005742
  39    -0.0018386520686866
  40    -0.016805812320089
  41    -0.015465250655332
  42    0.0064568284045971
  43     0.060320859150489
  44     0.055666958519991
  45     -0.02286864707803
  46     0.024193346718155
  47    -0.047919284031917
  48    -0.014379446216071
  49     0.075399539444235
  50    -0.020211235228256
  51     0.014836547109367
  52    -0.029189065049679
  53    -0.009105284420956
  54     0.045650990920106
  55    -0.012724129142839
  56    -0.0002675529231137
  57    0.0016702580640929
  58    -0.0015251508021193
  59    -0.0043185325127699
  60     0.001981640614286
  61    0.0012116426909974
  62    -0.0044481124319884
  63    7.7285342387246e-06
  64    9.1007063166704e-06
  65    7.231247860542e-05
  66      0.39975257273065
  67      0.36698383022683
  68     -0.15434746117243
  69      0.34400863546674
  70      0.31611440487982
  71     -0.13288858789754
  72    -1.0230729364287e-05
  73    5.5079946528838e-06
  74    -7.5657731964311e-06
  75    5.2885282861939e-07
  76    -1.9646315765774e-05
  77    -0.0052198100407783
  78    -0.0082371101182828
  79    -0.046188144273813
  80    -0.0089982153496968
  81    0.0044184374340087
  82    -0.0016161977084235
  83     0.012358785130293
  84    -0.0050593935065344
  85     0.018039381926543
  86    -0.00010708178133821
  87    -0.00043157124948181
  88    -5.8767400576133e-05
  89    0.0018603725100024
  90    -0.0014407770891557
  91     0.013200911561887
  92    0.0043188928780434
  93    -0.00017126903065034
  94    1.3893006023909e-05
  95    0.00040151513367279
  96    -0.0021386942217333
  97    -0.0035331093261192
  98    0.0010628325862958
  99    -0.00078134143092177
 100    0.00035435809763878
 101    -0.005546691334477
 102      0.02779508629964
 103    -0.0036380333838943
 104    -0.00072064698837478
 105    -0.00046676104397263
 106    -0.0042452161874535
 107    -0.0081583487089748
 108     -0.02737281481105
 109    -0.0018311676559709
 110    -0.00017458870718013
 111    0.0074051906379881
 112    -0.0024863652149098
 113      0.01301758257522
 114    -0.0085607092054537
 115    0.0015569821661893
 116    -0.00036764347431092
 117    0.0009697391534046
 118    -1.2304082531222e-05
 119    3.4038579327142e-05
 120    -0.0063464877312514
 121    0.0040172691322859
 122    -0.0005668536172544
 123    0.00043030747091196
 124    0.0024695066194603
 125       0.0105208902859
 126    0.0099790852316144
 127    0.00083636246401846
 128    -0.00013683276762418
 129    0.0004040299162484
 130    -0.0026084349456304
 131    -0.0037170312497149
 132    0.00048257745228482
 133    -0.00021029859511779
 134    -0.00094871688597764
 135    0.0043628596818329
 136    0.0066057152056939
 137     0.040575851571631
 138     0.005761684043526
 139    -0.0062398119550166
 140    0.0027569289371467
 141    -0.015887997068838
 142    0.0020591879659253
 143    -0.013995934628544
 144    0.00065671735257239
 145    -0.0012159307513229
 146    0.00021070964742546
 147    0.0012303733476332
 148    0.00098122159517667
 149    -0.010906390213961
 150    -0.002975227604997
 151    -4.0894715234819e-05
 152    -0.00026102825887586
 153    -0.00023919867536217
 154    0.0042929188560106
 155    -0.027741123069505
 156    -8.1029996140601e-05
 157    -0.0026699183783978
 158    0.0023098517774326
 159    0.0013244512313439
 160    0.0037322734351452
 161    -0.00091857521858348
 162    0.00081997727685529
 163    -0.0004431989879511
 164    0.0050582956285484
 165      0.00964566867206
 166     0.033387977484176
 167    -0.0040946233086753
 168    -0.0059194775679032
 169    -0.0052553662480504
 170     0.019032930271793
 171    1.1321014574238e-05
 172    0.00067307748502409
 173    -0.00092366830518677
 174    -0.00037836439334986
 175    -0.0017375720322721
 176    0.00084793518640706
 177    -0.00046077840652099
 178    0.0038811509912007
 179    0.0028209894639865
 180    7.068413253889e-05
 181    0.00094828879780346
 182    0.00034006137013963
 183    -0.013088471703758
 184    -0.011707306828723
 185    -0.0003162040796732
 186    0.00037808229196787
 187    -0.00079557411874234
 188    0.0074819361073396
 189    -0.0046811892188245
 190    -0.00076313244135909
 191    -0.0018978104936397
 192    -0.0013307252259678
 193    4.3185464254469e-06
 194    -3.9848244213608e-06
 195    0.00020172299215672
 196    0.0018539970246237
 197    0.0016839826165563
 198    -0.00069669544708939
 199    0.00021873164499819
 200    0.00010940369979802
 201    -0.00014892040978379
 202    0.00014070091247515
 203    -0.00015815524955662
 204    -0.00011685746770619
 205    0.00015803125215424
 206    -0.00011289343413193
 207    -0.0012139508678033
 208    -0.0030653701072443
 209    0.00019628205322557
 210    -0.00040692675735029
 211    -0.00051563939858202
 212    0.0013890953374811
 213    0.0031889645127861
 214    -0.0001995723847487
 215    0.00057319046245494
 216    0.00048674522531863
 217    -0.00020274911968917
 218    -0.00074777291452295
 219    -9.649633968442e-05
 220    -0.00026853196302444
 221    6.9860016740944e-05
 222    0.0052695894674176
 223    0.0080692418242728
 224     0.047832513275716
 225    -0.009145385808557
 226    0.0047356982534006
 227    -0.0013431604973403
 228     0.013248572575557
 229    -0.0066549096355871
 230     0.016781841801603
 231    0.00010468755623599
 232    0.00041205964941741
 233    0.00018661874056182
 234    -0.0018757062826872
 235    0.0013741647133311
 236     0.005130357735122
 237     -0.02972489029433
 238    -0.0040143861471586
 239    -0.00071164018978535
 240    -0.0005333420272358
 241    0.0012289348787959
 242    0.0029709136206318
 243    0.0011475236532268
 244    -0.00079973742395095
 245    0.00019537352755796
 246    -0.012735602377178
 247    -0.003507986449537
 248    -8.1394778021296e-05
 249    -7.1994160586244e-05
 250    0.00045506609427146
 251    0.0042128188801282
 252    0.0082984013288723
 253     0.026163072350045
 254    -0.0014717483868629
 255    -0.00040018942669479
 256    0.0073125960136097
 257    -0.004300037981743
 258     0.013833103465723
 259    -0.0080352048396699
 260    -0.0015571675097867
 261    0.00041243854003076
 262    -0.0010015543015579
 263    3.3654052330226e-05
 264    7.8970340453393e-05
 265    -0.010813996015419
 266    -0.010568584956344
 267    0.00077836503610533
 268    -6.9637116952363e-05
 269    0.00047786279155603
 270    0.0066219664393602
 271    -0.0016652305480698
 272    -0.00070961647386077
 273    0.00045995952615962
 274     0.002022549851634
 275    0.0032621619073431
 276    0.0029249199838471
 277    0.00049265137542609
 278    -0.00019748023596486
 279    -0.00077528823940538
 280    -0.0050821687743889
 281    -0.0095636618043119
 282    -0.034240454177475
 283    -0.0039424979028964
 284    -0.0062183747704789
 285    -0.0052361101350146
 286     0.018527282019664
 287    0.0014067147396766
 288    0.00049114949432776
 289    0.00096455858967187
 290    0.00037707700011028
 291     0.001674170938228
 292    -0.00083040483121184
 293    0.00052007289207697
 294     0.012872174829428
 295     0.011168777538286
 296    -0.00034329299612811
 297    0.00046793006438388
 298    -0.00076833760140018
 299    -0.0033997243920242
 300    -0.0032107666298728
 301    0.00012297062967305
 302    0.0010212277421377
 303    0.00047882108566564
 304    -0.0073663504579587
 305    0.0064191854544529
 306    -0.00092509767532764
 307    -0.0020021507146802
 308    -0.0016308401060999
 309    -0.0043159304224608
 310     -0.00678669431703
 311    -0.038695378443801
 312    0.0055950373155991
 313    -0.0059910495812734
 314    0.0030147732161346
 315    -0.014945299266674
 316    0.00076575765051804
 317    -0.015332114816395
 318    -0.00061879055220479
 319    0.0011692584732939
 320    -0.00013535163772198
 321    -0.0012603245195863
 322    -0.0010658829740952
 323     0.011240243771368
 324    0.0037969895689287
 325    4.8537245482501e-05
 326    -0.00030258660444327
 327    -0.00018344743784164
 328    -0.0020508981941754
 329    -0.0047838939280478
 330    -0.00096816305634307
 331    0.00069411557214394
 332    -0.00054899339577869
 333    -0.0046902495534288
 334     0.025717588411375
 335    -0.00013822037222583
 336    -0.0024158799179568
 337    0.0021138641763427
 338    5.1729572380229e-06
 339    3.8688176031549e-05
 340    -0.00018513329320241
 341    0.0018252138947427
 342    0.0017018916845488
 343    -0.0007067550446407
 344    0.0001333954296489
 345    0.00022276988181418
 346    -0.00011030641952954
 347    -0.00015221468319991
 348    0.00015975694944115
 349    0.0001067734883164
 350    -0.00015594220369966
 351    0.00010874288156124
 352    -0.0013990221928202
 353    -0.0032761877386586
 354    -0.00019135521485775
 355    0.00057575173627852
 356    0.00048367312888816
 357    0.0011869181259525
 358    0.0030601342098182
 359    0.00019697735947502
 360    -0.00041616488776314
 361    -0.000514418794377
 362    0.00021569857034279
 363    0.00044679373830652
 364    -0.00010738241589891
 365    -0.000261554710828
 366    6.0905461381878e-05
 Sym= A
 Ene=               1
 Spin= Alpha
 Occup=    1.00000
   1    5.3376093125519e-05
   2    -0.0001227771062109
   3    0.00087607772738524
   4    0.0011231997011044
   5    -0.0078132597900086
   6    0.0037237094114523
   7    -0.0018165543203934
   8    0.0053276502638052
   9    -0.013133187979099
  10     0.006448590809768
  11    -0.018718665917829
  12     0.048750681555849
  13    -0.025560495658966
  14     0.066806032804784
  15     0.070915456351725
  16    -0.0059576383799715
  17     0.041056897875733
  18    -0.0056835250519194
  19     0.048571390690759
  20      0.04229837938261
  21    -0.0057824802166376
  22     0.025943313107915
  23    -0.0039310522433638
  24     0.029966330061705
  25    0.0015203069081621
  26    -0.0027046677758763
  27    0.0052363778168108
  28    -0.0015105677515259
  29    2.4961095963505e-05
  30    -0.0023315535563686
  31     -0.00205907820509
  32    -5.4345439438384e-05
  33    0.00012515424130548
  34    -0.0008909487914659
  35    -0.00094985489951097
  36    0.0075711415787737
  37    0.0037240838976514
  38    -0.0018196440898491
  39    0.0053283732979591
  40    -0.013144353607754
  41    0.0064483601674043
  42     -0.01871795980524
  43      0.04920373852969
  44    -0.025153471208137
  45     0.066701853887434
  46     -0.07101040710496
  47    0.0060367806722926
  48    -0.041042586313267
  49    0.0055280254310712
  50    -0.048548482168772
  51    -0.042401941302819
  52    0.0058520350219738
  53    -0.025740345374729
  54     0.004089148978682
  55    -0.029919250378361
  56    0.0015165643500838
  57    -0.0027063718394883
  58     0.005241492390008
  59    -0.0015051113422753
  60    2.7665374206131e-05
  61    -0.0023298635797338
  62    -0.0020552922084755
  63    -3.585893954508e-07
  64    -1.4698005534993e-06
  65    1.0160245048652e-05
  66      0.30219250966957
  67     -0.13737307744871
  68      0.45606626346268
  69      0.26103498658739
  70     -0.11958868107502
  71      0.39109121180732
  72    5.4768420484084e-06
  73    -1.2010209487904e-05
  74    -7.7527689612686e-07
  75    1.0647484454024e-05
  76    -1.0653303063048e-06
  77    -0.0040037470501747
  78    -0.0079052911421666
  79    -0.025328624222214
  80    -0.0070034361579546
  81    -0.00054656158555694
  82    0.0015372929020725
  83    0.0076952860458325
  84     0.017048655842258
  85     0.005814914684578
  86    -0.0006848042778042
  87    -0.0013776752957926
  88    0.00032489148434638
  89    0.00091739895248087
  90    -0.00065227205746717
  91     0.011845159554647
  92     0.011622638237936
  93    -0.00053316433941072
  94    -0.0003914125166702
  95    0.00053351520615964
  96    -0.0050784616043395
  97    0.0032119323193467
  98    4.2254794985118e-05
  99    -0.00057653762915651
 100    -0.00017043063807289
 101    -0.0065301172399727
 102    -0.005228175353401
 103    -0.00078023700107375
 104    0.0011215104553707
 105    -3.7095514001749e-05
 106    0.0054793140752363
 107    0.0078546343032888
 108     0.050742743429698
 109    0.0065591767885491
 110    -0.00047214930928051
 111    -0.0087798138454435
 112    -0.017632764675221
 113    -0.0084585858088959
 114     0.012039651385114
 115    -0.0015389451859666
 116    0.0011695779890663
 117    -0.00044962871261495
 118    -0.00055059963102422
 119    -0.00094052865923173
 120    0.0034102614916909
 121    -0.030548087893534
 122     0.001070525749779
 123    0.0018761706068114
 124    -0.0045182973286377
 125    -0.010873001696653
 126    0.00016223386559621
 127    -0.00049302478664018
 128    -0.00023138504136746
 129    0.00012397734431148
 130    -0.0013719170968645
 131    0.00068915086850257
 132    -0.0008065993601049
 133    0.00033412979225316
 134    0.0010603818093296
 135    -0.0048815540190583
 136    -0.0093067298075931
 137    -0.032933716386914
 138    -0.00084966077376001
 139    0.0080613065213362
 140    -0.0028225059320452
 141    -0.0086801056397717
 142    -0.0030598787225202
 143     0.018670107350946
 144    -0.0012658535218744
 145    -0.00013598543514988
 146    0.00010367490880606
 147    -0.0017223435174812
 148    -0.00064457597136065
 149     0.013932621372603
 150     0.012266628673187
 151    0.00051919008492781
 152    0.0007111061102333
 153    3.6725775217026e-05
 154    -0.007413079798989
 155    -0.00088132386163001
 156    -0.0011283732386967
 157    0.0012448496470434
 158    -0.00025044157598343
 159    -0.0053628001043137
 160    0.0025443668037202
 161    0.00059751388772242
 162    -0.00029966988284824
 163    -0.0003052052162244
 164    0.0045699856044853
 165    0.0066278733953233
 166     0.042739822948459
 167    -0.0024764685101067
 168    -0.0086219327711163
 169    -0.0023036576104037
 170    0.0090499292155543
 171     0.018421614059621
 172    -0.0068122749234767
 173    -0.00034533977742086
 174    -4.0804055211368e-05
 175    -0.00097072081336368
 176    0.0010203868594109
 177    -0.0014102273077189
 178    0.00012193346333572
 179    0.0011644289815753
 180    0.00020333609425558
 181    0.0011427401125167
 182    0.00027702788150083
 183    -0.010035973742123
 184    -0.00011680292625519
 185    0.00020905743583997
 186    0.00011083945470008
 187    -0.00018307489641081
 188    0.0029963134051018
 189    -0.027232929840166
 190    -0.0030054359377153
 191    -0.0019968781998716
 192    -0.0017660352139788
 193    0.00011336961995313
 194    0.0004423496226032
 195    -0.00032470308547443
 196    0.0015403254327888
 197    -0.00086650052120632
 198    0.0018924007730108
 199    0.00078604631969803
 200    -0.0012790374878439
 201    -0.0012104895854336
 202    -0.00013374795132313
 203    0.00015031697768461
 204    -0.00015556505588468
 205    8.465598967192e-05
 206    -0.00012970336689357
 207    0.00071776306707804
 208     0.001352683161346
 209    -0.00037115657034556
 210    0.00033308779339049
 211    0.00015323104824606
 212    0.00041062509502462
 213    0.00071393090495489
 214    -0.00024328068090644
 215    0.00030428730718954
 216    -1.0180502806544e-05
 217    -0.0015958955697091
 218    -0.0036437969782975
 219    0.00050977317643594
 220    -0.000547298545882
 221    -0.00021157396435974
 222     0.004007666114844
 223     0.007906763803531
 224     0.025474169311539
 225    -0.0070309385803874
 226    -0.00023461526023829
 227     0.001353519683021
 228    0.0078380560684355
 229     0.015875539586542
 230    0.0068663563655094
 231    0.00058627315893324
 232    0.0013715973249387
 233    -0.00031938470339584
 234    -0.00095619015125833
 235    0.00063229632841684
 236    0.0066959244262697
 237    0.0040481052023722
 238    -0.001108719066362
 239    0.0010825081585523
 240    0.00015753615798178
 241    0.0047306870091726
 242    -0.0022245734619002
 243    0.00030181602950242
 244    -0.00057401087612455
 245    -0.00021683087311292
 246    -0.011717223481457
 247    -0.011625081011196
 248    -0.00050164813401502
 249    -0.00050075997321411
 250    0.00055276270723697
 251    -0.0054485624204022
 252    -0.0080240627235363
 253    -0.049741242822969
 254    0.0065857994325043
 255    -7.54871598208e-05
 256    -0.0085672296060865
 257    -0.017633151732698
 258    -0.010158298420447
 259     0.010431947323796
 260    0.0015646478149697
 261    -0.0012148894337097
 262    0.00052367255459545
 263    0.00042983153258489
 264    0.00092069350424253
 265     0.011633828947954
 266    0.00094146660110692
 267    -0.00039711992100521
 268    -0.00025746701744989
 269    9.1039737089552e-06
 270    -0.0038066558147216
 271     0.029210044859002
 272    0.00089044090805647
 273    0.0017338234996364
 274    -0.0042786771169384
 275    0.00025390664367876
 276    -0.00069654161568059
 277    -0.00087097961129416
 278    0.0002405746329336
 279    0.0010146226656218
 280    -0.004585351253624
 281    -0.0064586981559551
 282    -0.043486537983141
 283    -0.002272537064093
 284    -0.0087066943023023
 285    -0.002531762062853
 286    0.0087062148384453
 287     0.019224638557365
 288    -0.0055743501859421
 289    0.00034146249891321
 290    9.6762017657172e-05
 291    0.00088736574636149
 292    -0.0010436436888201
 293    0.0014234561629088
 294    0.0096281684914125
 295    -0.00060964987558192
 296    0.00021038850155335
 297    0.00019290320626509
 298    -0.00016104326814042
 299    0.00051632858726275
 300    -0.0012005404635769
 301    0.00016140663586022
 302    0.0011466775517934
 303    0.00033386068056172
 304    -0.0026724146624161
 305      0.02791456297803
 306    -0.0031577705792923
 307    -0.0021935340566181
 308    -0.0017761719696354
 309    0.0048768358713098
 310    0.0093377495570686
 311     0.032446524958554
 312    -0.00048544589082218
 313    0.0080808205731058
 314    -0.0028134100167038
 315    -0.010303312526342
 316    -0.0034165324263206
 317     0.018430970033357
 318    0.0013127323200342
 319    0.0002185553177273
 320    -7.4612253826272e-05
 321    0.0016934379534926
 322    0.00070700841393557
 323    -0.014014367265286
 324    -0.012348574781409
 325    0.00040021954129343
 326    0.00072329278600957
 327    4.1847422985198e-05
 328    0.0057239116412355
 329    -0.0033539287957931
 330    0.0005787589714921
 331    -1.6204573887442e-05
 332    -0.00039470787605012
 333    0.0071870029749363
 334    0.0027653366935025
 335    -0.0011892460529378
 336    0.00085051997919789
 337    -0.00020256481170558
 338    -0.00011278885702561
 339    -0.00043040282642166
 340    0.00023677364697895
 341     0.001522925104161
 342    -0.00088086300552214
 343    0.0019083346248946
 344    0.00068407724456499
 345    -0.0013557413850947
 346    -0.0011805799913253
 347    0.00014249872344575
 348    -0.00015638024489955
 349    0.00014995173481164
 350    -7.9333483261662e-05
 351    0.00012543632336435
 352    -0.00036200806743307
 353    -0.00056894191152548
 354    -0.00024765365464362
 355    0.00028376680394406
 356    -2.5657228299861e-05
 357    -0.00075754950384283
 358    -0.0014151047924008
 359    -0.00037234363469883
 360    0.00033929318253144
 361    0.00017239029983886
 362    0.0015923491863232
 363    0.0036654198325818
 364    0.00052082073127037
 365    -0.00053524832537415
 366    -0.0002181908377302
 Sym= A
 Ene=               2
 Spin= Alpha
 Occup=    1.00000
   1    -0.0042699881715049
   2     0.010940604452077
   3    -0.064731038342666
   4     0.078818035930161
   5    -0.0047738093604614
   6    -0.0062767805777606
   7    0.0099305370680563
   8    0.0073975202260011
   9     0.021492279588774
  10    -0.033993531002906
  11    -0.025313251107965
  12     -0.01475776422801
  13     0.022999081332694
  14     0.017031290477324
  15    -0.014766134512295
  16    -0.082659832310708
  17      0.13073554534216
  18    -0.052750427391436
  19     -0.11091983012463
  20    -0.0053595245757912
  21    -0.030696890142399
  22     0.048674406944947
  23     -0.01958200870353
  24    -0.041134888234855
  25    -0.0044004524852744
  26    -0.0011917228231179
  27    0.0019065818854164
  28    -0.0033011887252358
  29    -0.0069767502140839
  30    0.0049721222955496
  31    0.00059452128830006
  32    0.0042701681757917
  33    -0.010941041410583
  34     0.064733836764883
  35    -0.078842533428071
  36    0.0048103053663588
  37    -0.0062750990244009
  38    0.0099317758960258
  39    0.0073981613898967
  40     0.021485490351102
  41    -0.033998659624938
  42    -0.025315064838659
  43    -0.014689686695985
  44     0.023059363863892
  45     0.017021863224144
  46     0.014766872623462
  47     0.082674760577635
  48      -0.1307379264239
  49     0.052756150693993
  50      0.11093147544538
  51    0.0053224878745709
  52     0.030708122595307
  53    -0.048650261438891
  54     0.019622716127136
  55     0.041149466826115
  56    -0.0044000538451132
  57    -0.0011925628385436
  58    0.0019073107320562
  59    -0.0033006866144874
  60    -0.0069763331709284
  61    0.0049733788479097
  62    0.00059311449334945
  63    1.3944816321975e-06
  64    2.8613803481459e-06
  65    7.1693110668321e-06
  66       0.2410604877929
  67     -0.37781969259522
  68     -0.27412050724444
  69      0.21692462732979
  70     -0.33996780107558
  71     -0.24679178208187
  72    2.3515352206007e-07
  73    1.6902757148459e-06
  74    2.345906965221e-06
  75    7.092979079434e-07
  76    2.5055246631698e-06
  77    -0.0049306971009441
  78    -0.012590456791976
  79    -0.0092415272626802
  80    -0.013952195312976
  81    -0.0042180104290692
  82    -0.0040190822147654
  83    0.0094493906844604
  84    0.0050933483712566
  85    0.0046466707539584
  86    -0.00054021782329193
  87    -0.00093036761130174
  88    -3.6014906726748e-05
  89    0.0013645635542381
  90    -0.0010277622432628
  91    0.0059239706414607
  92    0.0019485558937728
  93    0.00095468928917678
  94    8.9432712717692e-05
  95    0.00038940184676193
  96    -0.00093027804887063
  97    -0.0017763873751673
  98    0.00067409282189297
  99     0.000109346733316
 100    2.2450603532472e-06
 101    -0.0027194162353571
 102    -0.0045438944358154
 103    -0.00041107372814126
 104    0.00021184635329683
 105    1.1499789646233e-05
 106    -0.0047673644591674
 107    -0.012233600910506
 108    -0.0083453803270813
 109    -0.0012161777153654
 110    -0.0083999117822011
 111     0.012326084894235
 112    -1.3255603803246e-05
 113    0.0084912675092757
 114    -0.0081967594060672
 115    0.0014626165905611
 116    -0.00072269431436257
 117    0.00069748155344209
 118    0.00036899345178225
 119    0.00028989255836483
 120    -0.0029005377151797
 121    -0.0058983594811011
 122    -0.00033627931212098
 123    -3.0628205188759e-05
 124    0.00061694369385669
 125     0.004763053537366
 126    0.0013430036589168
 127    0.00046583308242186
 128    0.00052047148018257
 129    -0.00085372070077402
 130    0.00022171059476152
 131    -0.00088246644000654
 132    3.8865502181583e-05
 133    0.00018144074355412
 134    -0.0009459951440873
 135    -0.004940760233947
 136    -0.012612917991442
 137    -0.0092999590676736
 138    -6.6698246459028e-05
 139     0.010042003775593
 140    -0.011336746319363
 141    -0.00097531514811594
 142    -0.0056765929340356
 143     0.010218201282811
 144    -0.0011663290291383
 145    0.0003916056424845
 146    -0.00014712646728787
 147    -0.0014247377618905
 148    -0.00074161757184684
 149      0.00597132644665
 150    0.0019079324793341
 151    0.00022631551371854
 152    -0.00065315316941525
 153    0.00077344727543343
 154    -0.0027166833113998
 155    -0.0044009481474846
 156    -0.00023041885081207
 157    0.00037577363831636
 158    -7.7695821918545e-05
 159    -0.0009850669555625
 160    -0.0018527037171484
 161    3.062224883589e-06
 162    -0.00057818860363004
 163    0.00036268616651325
 164    -0.0047879790316213
 165    -0.012207545126522
 166    -0.0088906586801652
 167     0.012845777546535
 168    0.0058853485344993
 169     0.004906954003313
 170    -0.011241650843825
 171    -0.0029063718479935
 172    -0.0022880914524019
 173    0.00060825212986754
 174    0.00039200520332852
 175    0.0013150230358573
 176    -0.00096200119563641
 177    0.00070904100332004
 178    -0.00043100741567602
 179    -0.0014440175003125
 180    -0.00051826290983166
 181    -0.00037674325837418
 182    -0.00048431676401205
 183    0.0053489828559764
 184    0.0016236303013256
 185    -0.00079041013586285
 186    -0.00066503551763774
 187    -0.00020359028416178
 188    -0.0027338746104199
 189    -0.0052383810868617
 190    0.0001967362630329
 191    0.00048695276446597
 192    0.00024779986810521
 193    0.0022776504947237
 194     0.011540521695293
 195    -0.018119990846471
 196    0.0043624517833317
 197    -0.0069116525503308
 198    -0.0050700547982887
 199    0.0054315182279902
 200    -0.0082794275624818
 201    -0.0058235548570203
 202    -0.00014985947076474
 203    -0.00075632352567563
 204     0.001204775257218
 205    -0.00048492320255399
 206    -0.0010471212306221
 207    0.00057319083819723
 208    -0.0010884877095877
 209    -0.00010421434001132
 210    0.00012088913687628
 211    8.6003997059169e-05
 212    0.0005398939652469
 213    -0.0010699608499812
 214     -8.9302841238e-05
 215    0.00013967010317271
 216    6.6342912371269e-05
 217    0.0004539430265117
 218    -0.0015555182549688
 219    -4.739171992142e-05
 220    9.0114817810678e-05
 221    6.6430988581137e-05
 222    0.0049233442624323
 223     0.012586067497028
 224    0.0091237265480662
 225     -0.01397806133911
 226    -0.0041805816014321
 227    -0.0040249403616949
 228    0.0094891710284569
 229    0.0050451683414187
 230    0.0046480092238147
 231    0.00049322796631334
 232    0.00092892329705476
 233    7.6166688464246e-05
 234    -0.0013633536392654
 235    0.00098962631223227
 236    0.0028233321300642
 237    0.0048098010496496
 238    -0.0004997760369232
 239    0.00022465604903113
 240    1.6662579328264e-06
 241    0.00064930717366214
 242    0.0014698757560469
 243    0.00076881343227283
 244    0.0001111820254783
 245    -3.0089829213345e-05
 246    -0.0057334783661864
 247    -0.0018238824074431
 248    0.00097417868959371
 249    5.1065610284557e-05
 250    0.00040993713194337
 251    0.0047723163848551
 252     0.012203421504646
 253    0.0086276825939406
 254    -0.0011882220779612
 255    -0.0084282253850456
 256     0.012291254285005
 257    -1.6383138317189e-05
 258    0.0085084799076993
 259    -0.0081838792496595
 260    -0.0014954027457081
 261    0.00075909153547227
 262    -0.00072175359686057
 263    -0.00033157294772658
 264    -0.00025218406962707
 265    -0.0050563936005232
 266    -0.0014730435144477
 267    0.00042756505899402
 268    0.00052814970305009
 269    -0.00083631280272133
 270    0.0028078219439907
 271    0.0055684783755095
 272    -0.00031538715829226
 273    -2.6387721405221e-05
 274    0.00056547795985073
 275     0.000107845239658
 276    0.0011262080376757
 277    4.1559165979982e-05
 278    0.00018763031832268
 279    -0.00086826702242755
 280    0.0047803004593454
 281     0.012217927817824
 282    0.0086976864589165
 283     0.012844266285538
 284    0.0059114764760166
 285    0.0049165246816631
 286    -0.011215681906573
 287    -0.0029067249156575
 288    -0.0022739814970002
 289    -0.00062541418674175
 290    -0.00039571924507748
 291    -0.0012649195709443
 292    0.00095439660509738
 293    -0.00072012997341059
 294    -0.0051742813462503
 295    -0.0015422928564351
 296    -0.00078937477319253
 297    -0.00069657188449145
 298    -0.00019684367198187
 299    0.00021636861372286
 300    0.0012321277342858
 301    -0.00054379703933634
 302    -0.0004075564426678
 303    -0.0005361646944292
 304    0.0028035669518582
 305    0.0054489682540547
 306    0.0002221627420921
 307    0.00052222582787891
 308    0.00026775484425189
 309    0.0049533771554182
 310     0.012634636884744
 311    0.0093958323919436
 312    -3.2707719210985e-05
 313     0.010032554888002
 314    -0.011328557249011
 315    -0.0010357350630111
 316    -0.0056592145026425
 317     0.010215720186792
 318     0.001176403356542
 319    -0.00036062719521725
 320    0.00015519672979617
 321    0.0014286093334463
 322    0.00080397862309198
 323    -0.0061231022568076
 324    -0.0020361358268783
 325    0.00018225022910043
 326    -0.00064610989932757
 327    0.00076507806209857
 328    0.0012340361141066
 329    0.0021599449177395
 330    3.9944523550458e-06
 331    -0.00047863226027727
 332    0.00034098583214098
 333     0.002607702199953
 334    0.0041835018670246
 335    -0.00020225241689506
 336    0.00029587958936266
 337    -3.0940606396827e-05
 338    -0.0022775572123731
 339    -0.011540381502748
 340     0.018124120851845
 341    0.0043698527099635
 342    -0.0069025810981236
 343    -0.0050774104574661
 344    0.0053969322526553
 345    -0.0083134373357559
 346    -0.0058007084793495
 347    0.00015050104713494
 348    0.00075556699073476
 349    -0.001205633658685
 350    0.00048569294589104
 351    0.0010467112903385
 352    -0.0005364601651369
 353    0.0011234856914135
 354    -8.6275353622586e-05
 355    0.00013634360806189
 356    6.430631747783e-05
 357    -0.00057523471899355
 358    0.0010241369861366
 359    -0.00010643350203683
 360    0.00012493888921934
 361    8.792605029512e-05
 362    -0.00045574214985289
 363    0.0015524100659088
 364    -4.8003644119543e-05
 365    8.9973769370109e-05
 366    6.5884744125298e-05
